 Entering Gaussian System, Link 0=g09
 Input=MeOH-dma.com
 Output=MeOH-dma.log
 Initial command:
 /opt/g09gh/gaussian/g09/l1.exe /scratch/liuchw/Gau-3530164.inp -scrdir=/scratch/liuchw/
 Entering Link 1 = /opt/g09gh/gaussian/g09/l1.exe PID=   3530165.
  
 Copyright (c) 1988,1990,1992,1993,1995,1998,2003,2009, Gaussian, Inc.
                  All Rights Reserved.
  
 This is part of the Gaussian(R) 09 program.  It is based on
 the Gaussian(R) 03 system (copyright 2003, Gaussian, Inc.),
 the Gaussian(R) 98 system (copyright 1998, Gaussian, Inc.),
 the Gaussian(R) 94 system (copyright 1995, Gaussian, Inc.),
 the Gaussian 92(TM) system (copyright 1992, Gaussian, Inc.),
 the Gaussian 90(TM) system (copyright 1990, Gaussian, Inc.),
 the Gaussian 88(TM) system (copyright 1988, Gaussian, Inc.),
 the Gaussian 86(TM) system (copyright 1986, Carnegie Mellon
 University), and the Gaussian 82(TM) system (copyright 1983,
 Carnegie Mellon University). Gaussian is a federally registered
 trademark of Gaussian, Inc.
  
 This software contains proprietary and confidential information,
 including trade secrets, belonging to Gaussian, Inc.
  
 This software is provided under written license and may be
 used, copied, transmitted, or stored only in accord with that
 written license.
  
 The following legend is applicable only to US Government
 contracts under FAR:
  
                    RESTRICTED RIGHTS LEGEND
  
 Use, reproduction and disclosure by the US Government is
 subject to restrictions as set forth in subparagraphs (a)
 and (c) of the Commercial Computer Software - Restricted
 Rights clause in FAR 52.227-19.
  
 Gaussian, Inc.
 340 Quinnipiac St., Bldg. 40, Wallingford CT 06492
  
  
 ---------------------------------------------------------------
 Warning -- This program may not be used in any manner that
 competes with the business of Gaussian, Inc. or will provide
 assistance to any competitor of Gaussian, Inc.  The licensee
 of this program is prohibited from giving any competitor of
 Gaussian, Inc. access to this program.  By using this program,
 the user acknowledges that Gaussian, Inc. is engaged in the
 business of creating and licensing software in the field of
 computational chemistry and represents and warrants to the
 licensee that it is not a competitor of Gaussian, Inc. and that
 it will not use this program in any manner prohibited above.
 ---------------------------------------------------------------
  

 Cite this work as:
 Gaussian 09, Revision A.02,
 M. J. Frisch, G. W. Trucks, H. B. Schlegel, G. E. Scuseria, 
 M. A. Robb, J. R. Cheeseman, G. Scalmani, V. Barone, B. Mennucci, 
 G. A. Petersson, H. Nakatsuji, M. Caricato, X. Li, H. P. Hratchian, 
 A. F. Izmaylov, J. Bloino, G. Zheng, J. L. Sonnenberg, M. Hada, 
 M. Ehara, K. Toyota, R. Fukuda, J. Hasegawa, M. Ishida, T. Nakajima, 
 Y. Honda, O. Kitao, H. Nakai, T. Vreven, J. A. Montgomery, Jr., 
 J. E. Peralta, F. Ogliaro, M. Bearpark, J. J. Heyd, E. Brothers, 
 K. N. Kudin, V. N. Staroverov, R. Kobayashi, J. Normand, 
 K. Raghavachari, A. Rendell, J. C. Burant, S. S. Iyengar, J. Tomasi, 
 M. Cossi, N. Rega, J. M. Millam, M. Klene, J. E. Knox, J. B. Cross, 
 V. Bakken, C. Adamo, J. Jaramillo, R. Gomperts, R. E. Stratmann, 
 O. Yazyev, A. J. Austin, R. Cammi, C. Pomelli, J. W. Ochterski, 
 R. L. Martin, K. Morokuma, V. G. Zakrzewski, G. A. Voth, 
 P. Salvador, J. J. Dannenberg, S. Dapprich, A. D. Daniels, 
 O. Farkas, J. B. Foresman, J. V. Ortiz, J. Cioslowski, 
 and D. J. Fox, Gaussian, Inc., Wallingford CT, 2009.
 
 ******************************************
 Gaussian 09:  EM64L-G09RevA.02 11-Jun-2009
                19-May-2022 
 ******************************************
 %chk=MeOH-dma.chk
 %Mem=200GB
 %Nproc=10
 Will use up to   10 processors via shared memory.
 -----------------------------------------------
 #P MP2/6-311G(d,p) SP Density=MP2 MaxDisk=500GB
 -----------------------------------------------
 1/30=1,38=1/1;
 2/12=2,17=6,18=5,40=1/2;
 3/5=4,6=6,7=101,11=9,16=1,25=1,30=1,71=1/1,2,3;
 4//1;
 5/5=2,38=5/2;
 8/6=4,10=2/1;
 9/15=1,16=-3/6;
 10/5=1,13=10/2;
 6/7=2,8=2,9=2,10=2,22=2/1;
 99/5=1,9=1/99;
 Leave Link    1 at Thu May 19 11:19:17 2022, MaxMem=26843545600 cpu:       0.4
 (Enter /opt/g09gh/gaussian/g09/l101.exe)
 ---------------------------------
 Generated by TIPTOP/IP_ParmGen.py
 ---------------------------------
 Symbolic Z-matrix:
 Charge =  0 Multiplicity = 1
 O                    -0.75087   0.1227    0. 
 C                     0.66654  -0.01947   0. 
 H                     1.03197  -0.54304   0.8921 
 H                     1.03197  -0.54304  -0.8921 
 H                     1.07456   0.9912    0. 
 H                    -1.1308   -0.76994   0. 
 
 NAtoms=      6 NQM=      6 NQMF=      0 NMic=      0 NMicF=      0 NTot=      6.
                    Isotopes and Nuclear Properties:
 (Nuclear quadrupole moments (NQMom) in fm**2, nuclear magnetic moments (NMagM)
  in nuclear magnetons)

  Atom         1           2           3           4           5           6
 IAtWgt=          16          12           1           1           1           1
 AtmWgt=  15.9949146  12.0000000   1.0078250   1.0078250   1.0078250   1.0078250
 NucSpn=           0           0           1           1           1           1
 AtZEff=   0.0000000   0.0000000   0.0000000   0.0000000   0.0000000   0.0000000
 NQMom=    0.0000000   0.0000000   0.0000000   0.0000000   0.0000000   0.0000000
 NMagM=    0.0000000   0.0000000   2.7928460   2.7928460   2.7928460   2.7928460
 Leave Link  101 at Thu May 19 11:19:17 2022, MaxMem=26843545600 cpu:       0.6
 (Enter /opt/g09gh/gaussian/g09/l202.exe)
                          Input orientation:                          
 ---------------------------------------------------------------------
 Center     Atomic      Atomic             Coordinates (Angstroms)
 Number     Number       Type             X           Y           Z
 ---------------------------------------------------------------------
      1          8           0       -0.750870    0.122700    0.000000
      2          6           0        0.666540   -0.019470    0.000000
      3          1           0        1.031970   -0.543040    0.892100
      4          1           0        1.031970   -0.543040   -0.892100
      5          1           0        1.074560    0.991200    0.000000
      6          1           0       -1.130800   -0.769940    0.000000
 ---------------------------------------------------------------------
                    Distance matrix (angstroms):
                    1          2          3          4          5
     1  O    0.000000
     2  C    1.424522   0.000000
     3  H    2.101802   1.097045   0.000000
     4  H    2.101802   1.097045   1.784200   0.000000
     5  H    2.021506   1.089924   1.775260   1.775260   0.000000
     6  H    0.970130   1.947726   2.350511   2.350511   2.822273
                    6
     6  H    0.000000
 Stoichiometry    CH4O
 Framework group  CS[SG(CH2O),X(H2)]
 Deg. of freedom     8
 Full point group                 CS      NOp   2
 Largest Abelian subgroup         CS      NOp   2
 Largest concise Abelian subgroup CS      NOp   2
                         Standard orientation:                         
 ---------------------------------------------------------------------
 Center     Atomic      Atomic             Coordinates (Angstroms)
 Number     Number       Type             X           Y           Z
 ---------------------------------------------------------------------
      1          8           0       -0.047151   -0.759366    0.000000
      2          6           0       -0.047151    0.665156    0.000000
      3          1           0        0.437334    1.081015    0.892100
      4          1           0        0.437334    1.081015   -0.892100
      5          1           0       -1.093497    0.970272    0.000000
      6          1           0        0.878950   -1.048312    0.000000
 ---------------------------------------------------------------------
 Rotational constants (GHZ):    127.1735202     24.6963813     23.8056866
 Leave Link  202 at Thu May 19 11:19:17 2022, MaxMem=26843545600 cpu:       0.0
 (Enter /opt/g09gh/gaussian/g09/l301.exe)
 Standard basis: 6-311G(d,p) (5D, 7F)
 Ernie: Thresh=  0.10000D-02 Tol=  0.10000D-05 Strict=F.
 There are    42 symmetry adapted basis functions of A'  symmetry.
 There are    18 symmetry adapted basis functions of A"  symmetry.
 Integral buffers will be    131072 words long.
 Raffenetti 1 integral format.
 Two-electron integral symmetry is turned on.
    60 basis functions,    96 primitive gaussians,    62 cartesian basis functions
     9 alpha electrons        9 beta electrons
       nuclear repulsion energy        40.1793801527 Hartrees.
 IExCor=    0 DFT=F Ex=HF Corr=None ExCW=0 ScaHFX=  1.000000
 ScaDFX=  1.000000  1.000000  1.000000  1.000000 ScalE2=  1.000000  1.000000
 IRadAn=      0 IRanWt=     -1 IRanGd=            0 ICorTp=0
 NAtoms=    6 NActive=    6 NUniq=    5 SFac= 1.08D+00 NAtFMM=   80 NAOKFM=F Big=F
 Leave Link  301 at Thu May 19 11:19:18 2022, MaxMem=26843545600 cpu:       0.6
 (Enter /opt/g09gh/gaussian/g09/l302.exe)
 NPDir=0 NMtPBC=     1 NCelOv=     1 NCel=       1 NClECP=     1 NCelD=      1
         NCelK=      1 NCelE2=     1 NClLst=     1 CellRange=     0.0.
 One-electron integrals computed using PRISM.
 One-electron integral symmetry used in STVInt
 NBasis=    60 RedAO= T  NBF=    42    18
 NBsUse=    60 1.00D-06 NBFU=    42    18
 Leave Link  302 at Thu May 19 11:19:18 2022, MaxMem=26843545600 cpu:       2.0
 (Enter /opt/g09gh/gaussian/g09/l303.exe)
 DipDrv:  MaxL=1.
 Leave Link  303 at Thu May 19 11:19:18 2022, MaxMem=26843545600 cpu:       0.3
 (Enter /opt/g09gh/gaussian/g09/l401.exe)
 Harris functional with IExCor=  205 diagonalized for initial guess.
 ExpMin= 1.03D-01 ExpMax= 8.59D+03 ExpMxC= 1.30D+03 IAcc=1 IRadAn=         1 AccDes= 0.00D+00
 HarFok:  IExCor=  205 AccDes= 0.00D+00 IRadAn=         1 IDoV= 1
 ScaDFX=  1.000000  1.000000  1.000000  1.000000
 FoFCou: FMM=F IPFlag=           0 FMFlag=      100000 FMFlg1=           0
         NFxFlg=           0 DoJE=T BraDBF=F KetDBF=T FulRan=T
         Omega=  0.000000  0.000000  1.000000  0.000000  0.000000 ICntrl=     500 IOpCl=  0
         NMat0=    1 NMatS0=    1 NMatT0=    0 NMatD0=    1 NMtDS0=    0 NMtDT0=    0
         I1Cent=           4 NGrid=           0.
 Petite list used in FoFCou.
 Harris En= -115.256070006522    
 Initial guess orbital symmetries:
       Occupied  (A') (A') (A') (A') (A') (A") (A') (A') (A")
       Virtual   (A') (A') (A') (A") (A') (A') (A") (A') (A') (A')
                 (A") (A') (A') (A') (A") (A') (A") (A') (A') (A")
                 (A") (A') (A') (A") (A') (A") (A') (A') (A') (A")
                 (A') (A') (A') (A") (A") (A') (A') (A') (A') (A")
                 (A") (A') (A') (A") (A') (A') (A") (A') (A') (A')
                 (A')
 The electronic state of the initial guess is 1-A'.
 Leave Link  401 at Thu May 19 11:19:18 2022, MaxMem=26843545600 cpu:       2.7
 (Enter /opt/g09gh/gaussian/g09/l502.exe)
 Closed shell SCF:
 Requested convergence on RMS density matrix=1.00D-08 within 128 cycles.
 Requested convergence on MAX density matrix=1.00D-06.
 Requested convergence on             energy=1.00D-06.
 No special actions if energy rises.
 Using DIIS extrapolation, IDIIS=  1040.
 Integral symmetry usage will be decided dynamically.
 Keep R1 ints in memory in canonical form, NReq=2758949.
 IEnd=       30854 IEndB=       30854 NGot= 26843545600 MDV= 26841627184
 LenX= 26841627184 LenY= 26841622899
 Symmetry not used in FoFDir.
 MinBra= 0 MaxBra= 2 Meth= 1.
 IRaf=       0 NMat=   1 IRICut=       1 DoRegI=T DoRafI=F ISym2E= 0 JSym2E=0.

 Cycle   1  Pass 1  IDiag  1:
 E= -114.954172274022    
 DIIS: error= 5.72D-02 at cycle   1 NSaved=   1.
 NSaved= 1 IEnMin= 1 EnMin= -114.954172274022     IErMin= 1 ErrMin= 5.72D-02
 ErrMax= 5.72D-02 EMaxC= 1.00D-01 BMatC= 2.52D-01 BMatP= 2.52D-01
 IDIUse=3 WtCom= 4.28D-01 WtEn= 5.72D-01
 Coeff-Com:  0.100D+01
 Coeff-En:   0.100D+01
 Coeff:      0.100D+01
 Gap=     0.583 Goal=   None    Shift=    0.000
 GapD=    0.583 DampG=2.000 DampE=0.500 DampFc=1.0000 IDamp=-1.
 RMSDP=4.59D-03 MaxDP=7.95D-02              OVMax= 1.01D-01

 Cycle   2  Pass 1  IDiag  1:
 E= -115.050416538724     Delta-E=       -0.096244264702 Rises=F Damp=F
 DIIS: error= 2.16D-02 at cycle   2 NSaved=   2.
 NSaved= 2 IEnMin= 2 EnMin= -115.050416538724     IErMin= 2 ErrMin= 2.16D-02
 ErrMax= 2.16D-02 EMaxC= 1.00D-01 BMatC= 3.42D-02 BMatP= 2.52D-01
 IDIUse=3 WtCom= 7.84D-01 WtEn= 2.16D-01
 Coeff-Com:  0.214D+00 0.786D+00
 Coeff-En:   0.000D+00 0.100D+01
 Coeff:      0.168D+00 0.832D+00
 Gap=     0.633 Goal=   None    Shift=    0.000
 RMSDP=2.15D-03 MaxDP=4.38D-02 DE=-9.62D-02 OVMax= 4.08D-02

 Cycle   3  Pass 1  IDiag  1:
 E= -115.071893595316     Delta-E=       -0.021477056592 Rises=F Damp=F
 DIIS: error= 7.34D-03 at cycle   3 NSaved=   3.
 NSaved= 3 IEnMin= 3 EnMin= -115.071893595316     IErMin= 3 ErrMin= 7.34D-03
 ErrMax= 7.34D-03 EMaxC= 1.00D-01 BMatC= 3.40D-03 BMatP= 3.42D-02
 IDIUse=3 WtCom= 9.27D-01 WtEn= 7.34D-02
 Coeff-Com: -0.147D-01 0.214D+00 0.801D+00
 Coeff-En:   0.000D+00 0.000D+00 0.100D+01
 Coeff:     -0.136D-01 0.198D+00 0.816D+00
 Gap=     0.599 Goal=   None    Shift=    0.000
 RMSDP=4.97D-04 MaxDP=9.82D-03 DE=-2.15D-02 OVMax= 1.21D-02

 Cycle   4  Pass 1  IDiag  1:
 E= -115.074068574636     Delta-E=       -0.002174979320 Rises=F Damp=F
 DIIS: error= 1.29D-03 at cycle   4 NSaved=   4.
 NSaved= 4 IEnMin= 4 EnMin= -115.074068574636     IErMin= 4 ErrMin= 1.29D-03
 ErrMax= 1.29D-03 EMaxC= 1.00D-01 BMatC= 9.02D-05 BMatP= 3.40D-03
 IDIUse=3 WtCom= 9.87D-01 WtEn= 1.29D-02
 Coeff-Com: -0.663D-02 0.267D-01 0.195D+00 0.785D+00
 Coeff-En:   0.000D+00 0.000D+00 0.000D+00 0.100D+01
 Coeff:     -0.655D-02 0.264D-01 0.193D+00 0.788D+00
 Gap=     0.599 Goal=   None    Shift=    0.000
 RMSDP=1.03D-04 MaxDP=1.94D-03 DE=-2.17D-03 OVMax= 2.58D-03

 Cycle   5  Pass 1  IDiag  1:
 E= -115.074143906486     Delta-E=       -0.000075331849 Rises=F Damp=F
 DIIS: error= 2.69D-04 at cycle   5 NSaved=   5.
 NSaved= 5 IEnMin= 5 EnMin= -115.074143906486     IErMin= 5 ErrMin= 2.69D-04
 ErrMax= 2.69D-04 EMaxC= 1.00D-01 BMatC= 4.59D-06 BMatP= 9.02D-05
 IDIUse=3 WtCom= 9.97D-01 WtEn= 2.69D-03
 Coeff-Com:  0.126D-02-0.202D-01-0.749D-01-0.965D-02 0.110D+01
 Coeff-En:   0.000D+00 0.000D+00 0.000D+00 0.000D+00 0.100D+01
 Coeff:      0.125D-02-0.202D-01-0.747D-01-0.963D-02 0.110D+01
 Gap=     0.600 Goal=   None    Shift=    0.000
 RMSDP=4.65D-05 MaxDP=7.34D-04 DE=-7.53D-05 OVMax= 8.81D-04

 Cycle   6  Pass 1  IDiag  1:
 E= -115.074151205831     Delta-E=       -0.000007299345 Rises=F Damp=F
 DIIS: error= 5.71D-05 at cycle   6 NSaved=   6.
 NSaved= 6 IEnMin= 6 EnMin= -115.074151205831     IErMin= 6 ErrMin= 5.71D-05
 ErrMax= 5.71D-05 EMaxC= 1.00D-01 BMatC= 1.48D-07 BMatP= 4.59D-06
 IDIUse=1 WtCom= 1.00D+00 WtEn= 0.00D+00
 Coeff-Com:  0.262D-03-0.810D-03-0.475D-02-0.367D-01-0.864D-01 0.113D+01
 Coeff:      0.262D-03-0.810D-03-0.475D-02-0.367D-01-0.864D-01 0.113D+01
 Gap=     0.600 Goal=   None    Shift=    0.000
 RMSDP=1.11D-05 MaxDP=1.08D-04 DE=-7.30D-06 OVMax= 2.58D-04

 Cycle   7  Pass 1  IDiag  1:
 E= -115.074151543316     Delta-E=       -0.000000337484 Rises=F Damp=F
 DIIS: error= 1.25D-05 at cycle   7 NSaved=   7.
 NSaved= 7 IEnMin= 7 EnMin= -115.074151543316     IErMin= 7 ErrMin= 1.25D-05
 ErrMax= 1.25D-05 EMaxC= 1.00D-01 BMatC= 6.44D-09 BMatP= 1.48D-07
 IDIUse=1 WtCom= 1.00D+00 WtEn= 0.00D+00
 Coeff-Com: -0.113D-03 0.961D-03 0.436D-02 0.841D-02-0.170D-01-0.299D+00
 Coeff-Com:  0.130D+01
 Coeff:     -0.113D-03 0.961D-03 0.436D-02 0.841D-02-0.170D-01-0.299D+00
 Coeff:      0.130D+01
 Gap=     0.600 Goal=   None    Shift=    0.000
 RMSDP=2.49D-06 MaxDP=3.39D-05 DE=-3.37D-07 OVMax= 7.93D-05

 Cycle   8  Pass 1  IDiag  1:
 E= -115.074151560143     Delta-E=       -0.000000016827 Rises=F Damp=F
 DIIS: error= 2.03D-06 at cycle   8 NSaved=   8.
 NSaved= 8 IEnMin= 8 EnMin= -115.074151560143     IErMin= 8 ErrMin= 2.03D-06
 ErrMax= 2.03D-06 EMaxC= 1.00D-01 BMatC= 2.38D-10 BMatP= 6.44D-09
 IDIUse=1 WtCom= 1.00D+00 WtEn= 0.00D+00
 Coeff-Com:  0.185D-04-0.211D-03-0.101D-02-0.134D-02 0.656D-02 0.581D-01
 Coeff-Com: -0.417D+00 0.135D+01
 Coeff:      0.185D-04-0.211D-03-0.101D-02-0.134D-02 0.656D-02 0.581D-01
 Coeff:     -0.417D+00 0.135D+01
 Gap=     0.600 Goal=   None    Shift=    0.000
 RMSDP=5.70D-07 MaxDP=6.24D-06 DE=-1.68D-08 OVMax= 1.78D-05

 Cycle   9  Pass 1  IDiag  1:
 E= -115.074151560839     Delta-E=       -0.000000000697 Rises=F Damp=F
 DIIS: error= 5.09D-07 at cycle   9 NSaved=   9.
 NSaved= 9 IEnMin= 9 EnMin= -115.074151560839     IErMin= 9 ErrMin= 5.09D-07
 ErrMax= 5.09D-07 EMaxC= 1.00D-01 BMatC= 6.56D-12 BMatP= 2.38D-10
 IDIUse=1 WtCom= 1.00D+00 WtEn= 0.00D+00
 Coeff-Com: -0.219D-05 0.356D-04 0.185D-03 0.821D-04-0.188D-02-0.531D-02
 Coeff-Com:  0.766D-01-0.379D+00 0.131D+01
 Coeff:     -0.219D-05 0.356D-04 0.185D-03 0.821D-04-0.188D-02-0.531D-02
 Coeff:      0.766D-01-0.379D+00 0.131D+01
 Gap=     0.600 Goal=   None    Shift=    0.000
 RMSDP=7.71D-08 MaxDP=6.97D-07 DE=-6.97D-10 OVMax= 2.18D-06

 Cycle  10  Pass 1  IDiag  1:
 E= -115.074151560857     Delta-E=       -0.000000000017 Rises=F Damp=F
 DIIS: error= 1.00D-07 at cycle  10 NSaved=  10.
 NSaved=10 IEnMin=10 EnMin= -115.074151560857     IErMin=10 ErrMin= 1.00D-07
 ErrMax= 1.00D-07 EMaxC= 1.00D-01 BMatC= 2.41D-13 BMatP= 6.56D-12
 IDIUse=1 WtCom= 1.00D+00 WtEn= 0.00D+00
 Coeff-Com:  0.370D-07-0.313D-05-0.212D-04 0.231D-04 0.291D-03-0.854D-04
 Coeff-Com: -0.869D-02 0.601D-01-0.346D+00 0.129D+01
 Coeff:      0.370D-07-0.313D-05-0.212D-04 0.231D-04 0.291D-03-0.854D-04
 Coeff:     -0.869D-02 0.601D-01-0.346D+00 0.129D+01
 Gap=     0.600 Goal=   None    Shift=    0.000
 RMSDP=1.34D-08 MaxDP=1.86D-07 DE=-1.73D-11 OVMax= 4.14D-07

 Cycle  11  Pass 1  IDiag  1:
 E= -115.074151560857     Delta-E=        0.000000000000 Rises=F Damp=F
 DIIS: error= 2.21D-08 at cycle  11 NSaved=  11.
 NSaved=11 IEnMin=11 EnMin= -115.074151560857     IErMin=11 ErrMin= 2.21D-08
 ErrMax= 2.21D-08 EMaxC= 1.00D-01 BMatC= 1.02D-14 BMatP= 2.41D-13
 IDIUse=1 WtCom= 1.00D+00 WtEn= 0.00D+00
 Coeff-Com:  0.990D-07-0.157D-05-0.729D-05-0.650D-05 0.669D-04 0.266D-03
 Coeff-Com: -0.313D-02 0.148D-01-0.371D-01-0.141D+00 0.117D+01
 Coeff:      0.990D-07-0.157D-05-0.729D-05-0.650D-05 0.669D-04 0.266D-03
 Coeff:     -0.313D-02 0.148D-01-0.371D-01-0.141D+00 0.117D+01
 Gap=     0.600 Goal=   None    Shift=    0.000
 RMSDP=3.41D-09 MaxDP=3.83D-08 DE=-4.55D-13 OVMax= 7.25D-08

 SCF Done:  E(RHF) =  -115.074151561     A.U. after   11 cycles
             Convg  =    0.3410D-08             -V/T =  2.0009
 KE= 1.149715465435D+02 PE=-3.516440328107D+02 EE= 8.141895455362D+01
 Leave Link  502 at Thu May 19 11:19:18 2022, MaxMem=26843545600 cpu:       2.8
 (Enter /opt/g09gh/gaussian/g09/l801.exe)
 ExpMin= 1.03D-01 ExpMax= 8.59D+03 ExpMxC= 1.30D+03 IAcc=1 IRadAn=         1 AccDes= 0.00D+00
 HarFok:  IExCor=  205 AccDes= 0.00D+00 IRadAn=         1 IDoV=-2
 ScaDFX=  1.000000  1.000000  1.000000  1.000000
 Largest valence mixing into a core orbital is  1.32D-04
 Largest core mixing into a valence orbital is  3.99D-05
 Range of M.O.s used for correlation:     3    60
 NBasis=    60 NAE=     9 NBE=     9 NFC=     2 NFV=     0
 NROrb=     58 NOA=     7 NOB=     7 NVA=    51 NVB=    51
 Leave Link  801 at Thu May 19 11:19:19 2022, MaxMem=26843545600 cpu:       0.4
 (Enter /opt/g09gh/gaussian/g09/l906.exe)
 Frozen-core derivative calculation, NFC=   2 NFV=   0.
 FulOut=F Deriv=T AODrv=F NAtomX=     6
   MMem=      255432  MDisk=           7 MDiskD=           7
  W3Min=       33480 MinDsk=      117859 NBas6D=          62
 NBas2D=        2031    NTT=        1953    LW2=     2040000
    MDV= 26843487735 MDiskM=     6012878 NBas2p=        1695
 Fully in-core method, ICMem=    10342301.
 IMap=   1   2   3   4   5   6   7   8   9
 JobTyp=1 Pass  1 fully in-core, NPsUse= 10.
 Compute canonical integrals, IntTyp=   4.
 Symmetry not used in FoFDir.
 MinBra= 0 MaxBra= 2 Meth= 1.
 IRaf=       0 NMat=   1 IRICut=       1 DoRegI=T DoRafI=F ISym2E= 0 JSym2E=0.
 Spin components of T(2) and E(2):
     alpha-alpha T2 =       0.1167774834D-01 E2=     -0.4263474112D-01
     alpha-beta  T2 =       0.7639555587D-01 E2=     -0.2767704483D+00
     beta-beta   T2 =       0.1167774834D-01 E2=     -0.4263474112D-01
 The integrals were generated   1 times.
 ANorm=    0.1048690160D+01
 E2 =    -0.3620399305D+00 EUMP2 =    -0.11543619149137D+03
 Leave Link  906 at Thu May 19 11:19:19 2022, MaxMem=26843545600 cpu:       5.2
 (Enter /opt/g09gh/gaussian/g09/l1002.exe)
 Minotr:  Closed shell wavefunction.
          Computing MP2/KS-MP2 derivatives.
          Using Z-Vector for PSCF gradient.
          Skipping F1 and S1 gradient terms here.
          Frozen-core window.
          Direct CPHF calculation.
          Differentiating once with respect to electric field.
                with respect to dipole field.
          Electric field/nuclear overlap derivatives assumed to be zero.
          Using symmetry in CPHF.
          Requested convergence is 1.0D-10 RMS, and 1.0D-09 maximum.
          NewPWx=F KeepS1=T KeepF1=T KeepIn=T MapXYZ=F SortEE=F KeepMc=T.
          MDV=   26843545548 using IRadAn=       0.
          Keep R1 ints in memory in canonical form, NReq=2728768.
 Symmetry not used in FoFDir.
 MinBra= 0 MaxBra= 2 Meth= 1.
 IRaf=       0 NMat=   1 IRICut=       1 DoRegI=T DoRafI=F ISym2E= 0 JSym2E=0.
          Solving linear equations separately, MaxMat=       0.
          There are     1 degrees of freedom in the 1st order CPHF.  IDoFFX=0.
 LinEq1:  Iter=  0 NonCon=     1 RMS=4.74D-03 Max=3.40D-02
 AX will form     1 AO Fock derivatives at one time.
 LinEq1:  Iter=  1 NonCon=     1 RMS=1.04D-03 Max=6.57D-03
 LinEq1:  Iter=  2 NonCon=     1 RMS=2.59D-04 Max=1.53D-03
 LinEq1:  Iter=  3 NonCon=     1 RMS=5.62D-05 Max=3.18D-04
 LinEq1:  Iter=  4 NonCon=     1 RMS=2.58D-05 Max=2.20D-04
 LinEq1:  Iter=  5 NonCon=     1 RMS=5.56D-06 Max=3.43D-05
 LinEq1:  Iter=  6 NonCon=     1 RMS=9.97D-07 Max=6.17D-06
 LinEq1:  Iter=  7 NonCon=     1 RMS=1.50D-07 Max=9.19D-07
 LinEq1:  Iter=  8 NonCon=     1 RMS=2.61D-08 Max=1.73D-07
 LinEq1:  Iter=  9 NonCon=     1 RMS=4.27D-09 Max=2.37D-08
 LinEq1:  Iter= 10 NonCon=     1 RMS=5.74D-10 Max=3.25D-09
 LinEq1:  Iter= 11 NonCon=     0 RMS=8.96D-11 Max=6.79D-10
 Linear equations converged to 1.000D-10 1.000D-09 after    11 iterations.
 End of Minotr Frequency-dependent properties file   721 does not exist.
 End of Minotr Frequency-dependent properties file   722 does not exist.
 Leave Link 1002 at Thu May 19 11:19:19 2022, MaxMem=26843545600 cpu:       3.0
 (Enter /opt/g09gh/gaussian/g09/l601.exe)
 Copying SCF densities to generalized density rwf, IOpCl= 0 IROHF=0.

 **********************************************************************

            Population analysis using the MP2 density.

 **********************************************************************

 Orbital symmetries:
       Occupied  (A') (A') (A') (A') (A') (A") (A') (A') (A")
       Virtual   (A') (A') (A") (A') (A') (A') (A") (A') (A') (A')
                 (A") (A') (A') (A') (A") (A') (A") (A') (A') (A")
                 (A") (A') (A') (A") (A') (A") (A') (A') (A') (A")
                 (A') (A') (A') (A") (A') (A") (A') (A') (A') (A")
                 (A") (A') (A') (A") (A') (A') (A") (A') (A') (A')
                 (A')
 The electronic state is 1-A'.
 Alpha  occ. eigenvalues --  -20.54593 -11.27087  -1.34780  -0.92126  -0.68325
 Alpha  occ. eigenvalues --   -0.61533  -0.58613  -0.49996  -0.44675
 Alpha virt. eigenvalues --    0.15324   0.18743   0.22522   0.23122   0.34116
 Alpha virt. eigenvalues --    0.45416   0.47867   0.57831   0.67905   0.72556
 Alpha virt. eigenvalues --    0.78426   0.79675   0.89970   1.02370   1.05238
 Alpha virt. eigenvalues --    1.11347   1.31435   1.38782   1.59785   1.61925
 Alpha virt. eigenvalues --    1.71164   1.71730   1.73678   1.74054   1.86916
 Alpha virt. eigenvalues --    1.93726   2.03930   2.25396   2.29056   2.39328
 Alpha virt. eigenvalues --    2.46948   2.61230   2.64750   2.70828   2.79824
 Alpha virt. eigenvalues --    2.81841   2.90205   3.09666   3.29813   3.46749
 Alpha virt. eigenvalues --    3.58979   3.67160   4.06186   4.15832   4.29758
 Alpha virt. eigenvalues --    4.36642   5.40549   5.78493   6.18160  25.01379
 Alpha virt. eigenvalues --   51.57267
          Condensed to atoms (all electrons):
              1          2          3          4          5          6
     1  O    7.970516   0.241747  -0.031463  -0.031463  -0.029239   0.292960
     2  C    0.241747   4.722911   0.385177   0.385177   0.391355  -0.042862
     3  H   -0.031463   0.385177   0.648901  -0.043996  -0.033113  -0.006288
     4  H   -0.031463   0.385177  -0.043996   0.648901  -0.033113  -0.006288
     5  H   -0.029239   0.391355  -0.033113  -0.033113   0.591849   0.008634
     6  H    0.292960  -0.042862  -0.006288  -0.006288   0.008634   0.522470
 Mulliken atomic charges:
              1
     1  O   -0.413059
     2  C   -0.083506
     3  H    0.080782
     4  H    0.080782
     5  H    0.103627
     6  H    0.231374
 Sum of Mulliken atomic charges =   0.00000
 Mulliken charges with hydrogens summed into heavy atoms:
              1
     1  O   -0.181685
     2  C    0.181685
 Sum of Mulliken charges with hydrogens summed into heavy atoms =   0.00000
 Electronic spatial extent (au):  <R**2>=             84.6216
 Charge=              0.0000 electrons
 Dipole moment (field-independent basis, Debye):
    X=              1.4440    Y=              0.9948    Z=              0.0000  Tot=              1.7535
 Quadrupole moment (field-independent basis, Debye-Ang):
   XX=            -11.7423   YY=            -13.3055   ZZ=            -13.7504
   XY=             -2.1093   XZ=              0.0000   YZ=              0.0000
 Traceless Quadrupole moment (field-independent basis, Debye-Ang):
   XX=              1.1904   YY=             -0.3728   ZZ=             -0.8177
   XY=             -2.1093   XZ=              0.0000   YZ=              0.0000
 Octapole moment (field-independent basis, Debye-Ang**2):
  XXX=              1.1195  YYY=             -3.8009  ZZZ=              0.0000  XYY=              2.2433
  XXY=             -2.2876  XXZ=              0.0000  XZZ=              0.6495  YZZ=             -0.4808
  YYZ=              0.0000  XYZ=              0.0000
 Hexadecapole moment (field-independent basis, Debye-Ang**3):
 XXXX=            -19.1885 YYYY=            -62.3849 ZZZZ=            -19.6905 XXXY=             -1.1153
 XXXZ=              0.0000 YYYX=             -1.1217 YYYZ=              0.0000 ZZZX=              0.0000
 ZZZY=              0.0000 XXYY=            -12.3524 XXZZ=             -6.8827 YYZZ=            -13.9552
 XXYZ=              0.0000 YYXZ=              0.0000 ZZXY=              0.8854
 N-N= 4.017938015266D+01 E-N=-3.518464498963D+02  KE= 1.154123001769D+02
 Symmetry A'   KE= 1.087083943283D+02
 Symmetry A"   KE= 6.703905848543D+00
 No NMR shielding tensors so no spin-rotation constants.
 Leave Link  601 at Thu May 19 11:19:20 2022, MaxMem=26843545600 cpu:       2.4
 (Enter /opt/g09gh/gaussian/g09/l9999.exe)
 1\1\GINC-NODE38\SP\RMP2-FC\6-311G(d,p)\C1H4O1\LIUCHW\19-May-2022\0\\#P
  MP2/6-311G(d,p) SP Density=MP2 MaxDisk=500GB\\Generated by TIPTOP/IP_
 ParmGen.py\\0,1\O,0,-0.75087,0.1227,0.\C,0,0.66654,-0.01947,0.\H,0,1.0
 3197,-0.54304,0.8921\H,0,1.03197,-0.54304,-0.8921\H,0,1.07456,0.9912,0
 .\H,0,-1.1308,-0.76994,0.\\Version=EM64L-G09RevA.02\State=1-A'\HF=-115
 .0741516\MP2=-115.4361915\RMSD=3.410e-09\Dipole=0.3327219,-0.6043286,0
 .\Quadrupole=0.0458883,0.5620293,-0.6079176,1.6523901,0.,0.\PG=CS [SG(
 C1H2O1),X(H2)]\\@


 THE SOLUTION TO A PROBLEM CHANGES THE PROBLEM.

                                 -- JOHN PEERS
           PAUL DICKSON'S "THE OFFICIAL RULES"
 Job cpu time:  0 days  0 hours  0 minutes 20.9 seconds.
 File lengths (MBytes):  RWF=      5 Int=      0 D2E=      0 Chk=      1 Scr=      1
 Normal termination of Gaussian 09 at Thu May 19 11:19:20 2022.
