 Entering Gaussian System, Link 0=g09
 Input=MeOH-esp.com
 Output=MeOH-esp.log
 Initial command:
 /opt/g09gh/gaussian/g09/l1.exe /scratch/liuchw/Gau-3530163.inp -scrdir=/scratch/liuchw/
 Entering Link 1 = /opt/g09gh/gaussian/g09/l1.exe PID=   3530166.
  
 Copyright (c) 1988,1990,1992,1993,1995,1998,2003,2009, Gaussian, Inc.
                  All Rights Reserved.
  
 This is part of the Gaussian(R) 09 program.  It is based on
 the Gaussian(R) 03 system (copyright 2003, Gaussian, Inc.),
 the Gaussian(R) 98 system (copyright 1998, Gaussian, Inc.),
 the Gaussian(R) 94 system (copyright 1995, Gaussian, Inc.),
 the Gaussian 92(TM) system (copyright 1992, Gaussian, Inc.),
 the Gaussian 90(TM) system (copyright 1990, Gaussian, Inc.),
 the Gaussian 88(TM) system (copyright 1988, Gaussian, Inc.),
 the Gaussian 86(TM) system (copyright 1986, Carnegie Mellon
 University), and the Gaussian 82(TM) system (copyright 1983,
 Carnegie Mellon University). Gaussian is a federally registered
 trademark of Gaussian, Inc.
  
 This software contains proprietary and confidential information,
 including trade secrets, belonging to Gaussian, Inc.
  
 This software is provided under written license and may be
 used, copied, transmitted, or stored only in accord with that
 written license.
  
 The following legend is applicable only to US Government
 contracts under FAR:
  
                    RESTRICTED RIGHTS LEGEND
  
 Use, reproduction and disclosure by the US Government is
 subject to restrictions as set forth in subparagraphs (a)
 and (c) of the Commercial Computer Software - Restricted
 Rights clause in FAR 52.227-19.
  
 Gaussian, Inc.
 340 Quinnipiac St., Bldg. 40, Wallingford CT 06492
  
  
 ---------------------------------------------------------------
 Warning -- This program may not be used in any manner that
 competes with the business of Gaussian, Inc. or will provide
 assistance to any competitor of Gaussian, Inc.  The licensee
 of this program is prohibited from giving any competitor of
 Gaussian, Inc. access to this program.  By using this program,
 the user acknowledges that Gaussian, Inc. is engaged in the
 business of creating and licensing software in the field of
 computational chemistry and represents and warrants to the
 licensee that it is not a competitor of Gaussian, Inc. and that
 it will not use this program in any manner prohibited above.
 ---------------------------------------------------------------
  

 Cite this work as:
 Gaussian 09, Revision A.02,
 M. J. Frisch, G. W. Trucks, H. B. Schlegel, G. E. Scuseria, 
 M. A. Robb, J. R. Cheeseman, G. Scalmani, V. Barone, B. Mennucci, 
 G. A. Petersson, H. Nakatsuji, M. Caricato, X. Li, H. P. Hratchian, 
 A. F. Izmaylov, J. Bloino, G. Zheng, J. L. Sonnenberg, M. Hada, 
 M. Ehara, K. Toyota, R. Fukuda, J. Hasegawa, M. Ishida, T. Nakajima, 
 Y. Honda, O. Kitao, H. Nakai, T. Vreven, J. A. Montgomery, Jr., 
 J. E. Peralta, F. Ogliaro, M. Bearpark, J. J. Heyd, E. Brothers, 
 K. N. Kudin, V. N. Staroverov, R. Kobayashi, J. Normand, 
 K. Raghavachari, A. Rendell, J. C. Burant, S. S. Iyengar, J. Tomasi, 
 M. Cossi, N. Rega, J. M. Millam, M. Klene, J. E. Knox, J. B. Cross, 
 V. Bakken, C. Adamo, J. Jaramillo, R. Gomperts, R. E. Stratmann, 
 O. Yazyev, A. J. Austin, R. Cammi, C. Pomelli, J. W. Ochterski, 
 R. L. Martin, K. Morokuma, V. G. Zakrzewski, G. A. Voth, 
 P. Salvador, J. J. Dannenberg, S. Dapprich, A. D. Daniels, 
 O. Farkas, J. B. Foresman, J. V. Ortiz, J. Cioslowski, 
 and D. J. Fox, Gaussian, Inc., Wallingford CT, 2009.
 
 ******************************************
 Gaussian 09:  EM64L-G09RevA.02 11-Jun-2009
                19-May-2022 
 ******************************************
 %chk=MeOH-esp.chk
 %Mem=200GB
 %Nproc=10
 Will use up to   10 processors via shared memory.
 -----------------------------------------------
 #P MP2/aug-cc-pvtz SP Density=MP2 MaxDisk=500GB
 -----------------------------------------------
 1/30=1,38=1/1;
 2/12=2,17=6,18=5,40=1/2;
 3/5=16,6=1,7=10,11=9,16=1,25=1,30=1,71=1/1,2,3;
 4//1;
 5/5=2,38=5/2;
 8/6=4,10=1/1;
 9/15=1,16=-3/6;
 10/5=1,13=10/2;
 6/7=2,8=2,9=2,10=2,22=2/1;
 99/5=1,9=1/99;
 Leave Link    1 at Thu May 19 11:19:17 2022, MaxMem=26843545600 cpu:       0.4
 (Enter /opt/g09gh/gaussian/g09/l101.exe)
 ---------------------------------
 Generated by TIPTOP/IP_ParmGen.py
 ---------------------------------
 Symbolic Z-matrix:
 Charge =  0 Multiplicity = 1
 O                    -0.75087   0.1227    0. 
 C                     0.66654  -0.01947   0. 
 H                     1.03197  -0.54304   0.8921 
 H                     1.03197  -0.54304  -0.8921 
 H                     1.07456   0.9912    0. 
 H                    -1.1308   -0.76994   0. 
 
 NAtoms=      6 NQM=      6 NQMF=      0 NMic=      0 NMicF=      0 NTot=      6.
                    Isotopes and Nuclear Properties:
 (Nuclear quadrupole moments (NQMom) in fm**2, nuclear magnetic moments (NMagM)
  in nuclear magnetons)

  Atom         1           2           3           4           5           6
 IAtWgt=          16          12           1           1           1           1
 AtmWgt=  15.9949146  12.0000000   1.0078250   1.0078250   1.0078250   1.0078250
 NucSpn=           0           0           1           1           1           1
 AtZEff=   0.0000000   0.0000000   0.0000000   0.0000000   0.0000000   0.0000000
 NQMom=    0.0000000   0.0000000   0.0000000   0.0000000   0.0000000   0.0000000
 NMagM=    0.0000000   0.0000000   2.7928460   2.7928460   2.7928460   2.7928460
 Leave Link  101 at Thu May 19 11:19:17 2022, MaxMem=26843545600 cpu:       0.6
 (Enter /opt/g09gh/gaussian/g09/l202.exe)
                          Input orientation:                          
 ---------------------------------------------------------------------
 Center     Atomic      Atomic             Coordinates (Angstroms)
 Number     Number       Type             X           Y           Z
 ---------------------------------------------------------------------
      1          8           0       -0.750870    0.122700    0.000000
      2          6           0        0.666540   -0.019470    0.000000
      3          1           0        1.031970   -0.543040    0.892100
      4          1           0        1.031970   -0.543040   -0.892100
      5          1           0        1.074560    0.991200    0.000000
      6          1           0       -1.130800   -0.769940    0.000000
 ---------------------------------------------------------------------
                    Distance matrix (angstroms):
                    1          2          3          4          5
     1  O    0.000000
     2  C    1.424522   0.000000
     3  H    2.101802   1.097045   0.000000
     4  H    2.101802   1.097045   1.784200   0.000000
     5  H    2.021506   1.089924   1.775260   1.775260   0.000000
     6  H    0.970130   1.947726   2.350511   2.350511   2.822273
                    6
     6  H    0.000000
 Stoichiometry    CH4O
 Framework group  CS[SG(CH2O),X(H2)]
 Deg. of freedom     8
 Full point group                 CS      NOp   2
 Largest Abelian subgroup         CS      NOp   2
 Largest concise Abelian subgroup CS      NOp   2
                         Standard orientation:                         
 ---------------------------------------------------------------------
 Center     Atomic      Atomic             Coordinates (Angstroms)
 Number     Number       Type             X           Y           Z
 ---------------------------------------------------------------------
      1          8           0       -0.047151   -0.759366    0.000000
      2          6           0       -0.047151    0.665156    0.000000
      3          1           0        0.437334    1.081015    0.892100
      4          1           0        0.437334    1.081015   -0.892100
      5          1           0       -1.093497    0.970272    0.000000
      6          1           0        0.878950   -1.048312    0.000000
 ---------------------------------------------------------------------
 Rotational constants (GHZ):    127.1735202     24.6963813     23.8056866
 Leave Link  202 at Thu May 19 11:19:17 2022, MaxMem=26843545600 cpu:       0.0
 (Enter /opt/g09gh/gaussian/g09/l301.exe)
 Standard basis: Aug-CC-pVTZ (5D, 7F)
 Ernie: Thresh=  0.10000D-02 Tol=  0.10000D-05 Strict=F.
 Ernie:  6 primitive shells out of 104 were deleted.
 There are   115 symmetry adapted basis functions of A'  symmetry.
 There are    69 symmetry adapted basis functions of A"  symmetry.
 Integral buffers will be    131072 words long.
 Raffenetti 1 integral format.
 Two-electron integral symmetry is turned on.
   184 basis functions,   252 primitive gaussians,   210 cartesian basis functions
     9 alpha electrons        9 beta electrons
       nuclear repulsion energy        40.1793801527 Hartrees.
 IExCor=    0 DFT=F Ex=HF Corr=None ExCW=0 ScaHFX=  1.000000
 ScaDFX=  1.000000  1.000000  1.000000  1.000000 ScalE2=  1.000000  1.000000
 IRadAn=      0 IRanWt=     -1 IRanGd=            0 ICorTp=0
 NAtoms=    6 NActive=    6 NUniq=    5 SFac= 1.08D+00 NAtFMM=   80 NAOKFM=F Big=F
 Leave Link  301 at Thu May 19 11:19:18 2022, MaxMem=26843545600 cpu:       0.6
 (Enter /opt/g09gh/gaussian/g09/l302.exe)
 NPDir=0 NMtPBC=     1 NCelOv=     1 NCel=       1 NClECP=     1 NCelD=      1
         NCelK=      1 NCelE2=     1 NClLst=     1 CellRange=     0.0.
 One-electron integrals computed using PRISM.
 One-electron integral symmetry used in STVInt
 NBasis=   184 RedAO= T  NBF=   115    69
 NBsUse=   184 1.00D-06 NBFU=   115    69
 Leave Link  302 at Thu May 19 11:19:18 2022, MaxMem=26843545600 cpu:       2.9
 (Enter /opt/g09gh/gaussian/g09/l303.exe)
 DipDrv:  MaxL=1.
 Leave Link  303 at Thu May 19 11:19:18 2022, MaxMem=26843545600 cpu:       0.4
 (Enter /opt/g09gh/gaussian/g09/l401.exe)
 Harris functional with IExCor=  205 diagonalized for initial guess.
 ExpMin= 2.53D-02 ExpMax= 1.53D+04 ExpMxC= 5.22D+02 IAcc=3 IRadAn=         0 AccDes= 0.00D+00
 HarFok:  IExCor=  205 AccDes= 0.00D+00 IRadAn=         0 IDoV= 1
 ScaDFX=  1.000000  1.000000  1.000000  1.000000
 FoFCou: FMM=F IPFlag=           0 FMFlag=      100000 FMFlg1=           0
         NFxFlg=           0 DoJE=T BraDBF=F KetDBF=T FulRan=T
         Omega=  0.000000  0.000000  1.000000  0.000000  0.000000 ICntrl=     500 IOpCl=  0
         NMat0=    1 NMatS0=    1 NMatT0=    0 NMatD0=    1 NMtDS0=    0 NMtDT0=    0
         I1Cent=           4 NGrid=           0.
 Petite list used in FoFCou.
 Harris En= -115.272720638900    
 Initial guess orbital symmetries:
       Occupied  (A') (A') (A') (A') (A') (A") (A') (A') (A")
       Virtual   (A') (A') (A') (A") (A') (A') (A") (A') (A') (A')
                 (A") (A') (A') (A") (A') (A') (A") (A') (A') (A")
                 (A') (A") (A") (A') (A') (A") (A') (A') (A') (A")
                 (A') (A') (A') (A") (A") (A') (A') (A') (A') (A")
                 (A') (A") (A") (A') (A') (A") (A") (A') (A") (A')
                 (A') (A') (A") (A') (A') (A") (A') (A') (A') (A")
                 (A') (A") (A") (A') (A") (A') (A") (A') (A') (A")
                 (A') (A') (A") (A') (A') (A") (A') (A") (A') (A")
                 (A') (A') (A") (A') (A") (A') (A") (A') (A') (A")
                 (A') (A") (A') (A') (A") (A') (A") (A') (A') (A')
                 (A") (A') (A') (A") (A") (A') (A') (A') (A') (A")
                 (A') (A") (A") (A') (A") (A') (A') (A") (A') (A')
                 (A") (A') (A") (A') (A") (A") (A') (A') (A') (A")
                 (A") (A') (A') (A") (A') (A") (A") (A') (A') (A')
                 (A') (A") (A') (A") (A') (A") (A') (A') (A") (A')
                 (A') (A") (A") (A') (A') (A") (A') (A') (A') (A')
                 (A") (A") (A') (A") (A') (A") (A") (A') (A') (A")
                 (A') (A') (A') (A') (A')
 The electronic state of the initial guess is 1-A'.
 Leave Link  401 at Thu May 19 11:19:18 2022, MaxMem=26843545600 cpu:       3.2
 (Enter /opt/g09gh/gaussian/g09/l502.exe)
 Closed shell SCF:
 Requested convergence on RMS density matrix=1.00D-08 within 128 cycles.
 Requested convergence on MAX density matrix=1.00D-06.
 Requested convergence on             energy=1.00D-06.
 No special actions if energy rises.
 Using DIIS extrapolation, IDIIS=  1040.
 Integral symmetry usage will be decided dynamically.
 Keep R1 ints in memory in canonical form, NReq=250284278.
 IEnd=      154314 IEndB=      154314 NGot= 26843545600 MDV= 26598019119
 LenX= 26598019119 LenY= 26597974578
 Symmetry not used in FoFDir.
 MinBra= 0 MaxBra= 3 Meth= 1.
 IRaf=       0 NMat=   1 IRICut=       1 DoRegI=T DoRafI=F ISym2E= 0 JSym2E=0.

 Cycle   1  Pass 1  IDiag  1:
 E= -114.970667548013    
 DIIS: error= 3.45D-02 at cycle   1 NSaved=   1.
 NSaved= 1 IEnMin= 1 EnMin= -114.970667548013     IErMin= 1 ErrMin= 3.45D-02
 ErrMax= 3.45D-02 EMaxC= 1.00D-01 BMatC= 2.51D-01 BMatP= 2.51D-01
 IDIUse=3 WtCom= 6.55D-01 WtEn= 3.45D-01
 Coeff-Com:  0.100D+01
 Coeff-En:   0.100D+01
 Coeff:      0.100D+01
 Gap=     0.454 Goal=   None    Shift=    0.000
 GapD=    0.454 DampG=2.000 DampE=0.500 DampFc=1.0000 IDamp=-1.
 RMSDP=1.56D-03 MaxDP=5.29D-02              OVMax= 1.03D-01

 Cycle   2  Pass 1  IDiag  1:
 E= -115.065165341474     Delta-E=       -0.094497793461 Rises=F Damp=F
 DIIS: error= 1.61D-02 at cycle   2 NSaved=   2.
 NSaved= 2 IEnMin= 2 EnMin= -115.065165341474     IErMin= 2 ErrMin= 1.61D-02
 ErrMax= 1.61D-02 EMaxC= 1.00D-01 BMatC= 3.77D-02 BMatP= 2.51D-01
 IDIUse=3 WtCom= 8.39D-01 WtEn= 1.61D-01
 Coeff-Com:  0.216D+00 0.784D+00
 Coeff-En:   0.000D+00 0.100D+01
 Coeff:      0.182D+00 0.818D+00
 Gap=     0.516 Goal=   None    Shift=    0.000
 RMSDP=7.03D-04 MaxDP=3.01D-02 DE=-9.45D-02 OVMax= 4.82D-02

 Cycle   3  Pass 1  IDiag  1:
 E= -115.088472813255     Delta-E=       -0.023307471781 Rises=F Damp=F
 DIIS: error= 4.21D-03 at cycle   3 NSaved=   3.
 NSaved= 3 IEnMin= 3 EnMin= -115.088472813255     IErMin= 3 ErrMin= 4.21D-03
 ErrMax= 4.21D-03 EMaxC= 1.00D-01 BMatC= 4.21D-03 BMatP= 3.77D-02
 IDIUse=3 WtCom= 9.58D-01 WtEn= 4.21D-02
 Coeff-Com: -0.185D-01 0.223D+00 0.795D+00
 Coeff-En:   0.000D+00 0.000D+00 0.100D+01
 Coeff:     -0.177D-01 0.214D+00 0.804D+00
 Gap=     0.481 Goal=   None    Shift=    0.000
 RMSDP=1.76D-04 MaxDP=7.03D-03 DE=-2.33D-02 OVMax= 1.30D-02

 Cycle   4  Pass 1  IDiag  1:
 E= -115.091120019549     Delta-E=       -0.002647206294 Rises=F Damp=F
 DIIS: error= 7.22D-04 at cycle   4 NSaved=   4.
 NSaved= 4 IEnMin= 4 EnMin= -115.091120019549     IErMin= 4 ErrMin= 7.22D-04
 ErrMax= 7.22D-04 EMaxC= 1.00D-01 BMatC= 1.03D-04 BMatP= 4.21D-03
 IDIUse=3 WtCom= 9.93D-01 WtEn= 7.22D-03
 Coeff-Com: -0.829D-02 0.334D-01 0.196D+00 0.779D+00
 Coeff-En:   0.000D+00 0.000D+00 0.000D+00 0.100D+01
 Coeff:     -0.823D-02 0.332D-01 0.195D+00 0.780D+00
 Gap=     0.480 Goal=   None    Shift=    0.000
 RMSDP=2.90D-05 MaxDP=8.46D-04 DE=-2.65D-03 OVMax= 2.87D-03

 Cycle   5  Pass 1  IDiag  1:
 E= -115.091211086874     Delta-E=       -0.000091067324 Rises=F Damp=F
 DIIS: error= 2.29D-04 at cycle   5 NSaved=   5.
 NSaved= 5 IEnMin= 5 EnMin= -115.091211086874     IErMin= 5 ErrMin= 2.29D-04
 ErrMax= 2.29D-04 EMaxC= 1.00D-01 BMatC= 5.76D-06 BMatP= 1.03D-04
 IDIUse=3 WtCom= 9.98D-01 WtEn= 2.29D-03
 Coeff-Com:  0.155D-02-0.187D-01-0.705D-01-0.863D-02 0.110D+01
 Coeff-En:   0.000D+00 0.000D+00 0.000D+00 0.000D+00 0.100D+01
 Coeff:      0.155D-02-0.186D-01-0.704D-01-0.861D-02 0.110D+01
 Gap=     0.480 Goal=   None    Shift=    0.000
 RMSDP=1.54D-05 MaxDP=5.20D-04 DE=-9.11D-05 OVMax= 9.83D-04

 Cycle   6  Pass 1  IDiag  1:
 E= -115.091220575478     Delta-E=       -0.000009488604 Rises=F Damp=F
 DIIS: error= 3.93D-05 at cycle   6 NSaved=   6.
 NSaved= 6 IEnMin= 6 EnMin= -115.091220575478     IErMin= 6 ErrMin= 3.93D-05
 ErrMax= 3.93D-05 EMaxC= 1.00D-01 BMatC= 2.44D-07 BMatP= 5.76D-06
 IDIUse=1 WtCom= 1.00D+00 WtEn= 0.00D+00
 Coeff-Com:  0.434D-03-0.169D-02-0.810D-02-0.445D-01-0.956D-01 0.115D+01
 Coeff:      0.434D-03-0.169D-02-0.810D-02-0.445D-01-0.956D-01 0.115D+01
 Gap=     0.480 Goal=   None    Shift=    0.000
 RMSDP=4.54D-06 MaxDP=1.40D-04 DE=-9.49D-06 OVMax= 3.37D-04

 Cycle   7  Pass 1  IDiag  1:
 E= -115.091221221562     Delta-E=       -0.000000646085 Rises=F Damp=F
 DIIS: error= 1.14D-05 at cycle   7 NSaved=   7.
 NSaved= 7 IEnMin= 7 EnMin= -115.091221221562     IErMin= 7 ErrMin= 1.14D-05
 ErrMax= 1.14D-05 EMaxC= 1.00D-01 BMatC= 1.25D-08 BMatP= 2.44D-07
 IDIUse=1 WtCom= 1.00D+00 WtEn= 0.00D+00
 Coeff-Com: -0.195D-03 0.135D-02 0.599D-02 0.122D-01-0.185D-01-0.352D+00
 Coeff-Com:  0.135D+01
 Coeff:     -0.195D-03 0.135D-02 0.599D-02 0.122D-01-0.185D-01-0.352D+00
 Coeff:      0.135D+01
 Gap=     0.480 Goal=   None    Shift=    0.000
 RMSDP=1.12D-06 MaxDP=4.09D-05 DE=-6.46D-07 OVMax= 1.02D-04

 Cycle   8  Pass 1  IDiag  1:
 E= -115.091221256950     Delta-E=       -0.000000035387 Rises=F Damp=F
 DIIS: error= 1.92D-06 at cycle   8 NSaved=   8.
 NSaved= 8 IEnMin= 8 EnMin= -115.091221256950     IErMin= 8 ErrMin= 1.92D-06
 ErrMax= 1.92D-06 EMaxC= 1.00D-01 BMatC= 4.00D-10 BMatP= 1.25D-08
 IDIUse=1 WtCom= 1.00D+00 WtEn= 0.00D+00
 Coeff-Com:  0.268D-04-0.235D-03-0.115D-02-0.169D-02 0.665D-02 0.598D-01
 Coeff-Com: -0.378D+00 0.131D+01
 Coeff:      0.268D-04-0.235D-03-0.115D-02-0.169D-02 0.665D-02 0.598D-01
 Coeff:     -0.378D+00 0.131D+01
 Gap=     0.480 Goal=   None    Shift=    0.000
 RMSDP=2.36D-07 MaxDP=6.08D-06 DE=-3.54D-08 OVMax= 1.92D-05

 Cycle   9  Pass 1  IDiag  1:
 E= -115.091221258074     Delta-E=       -0.000000001124 Rises=F Damp=F
 DIIS: error= 2.98D-07 at cycle   9 NSaved=   9.
 NSaved= 9 IEnMin= 9 EnMin= -115.091221258074     IErMin= 9 ErrMin= 2.98D-07
 ErrMax= 2.98D-07 EMaxC= 1.00D-01 BMatC= 1.20D-11 BMatP= 4.00D-10
 IDIUse=1 WtCom= 1.00D+00 WtEn= 0.00D+00
 Coeff-Com: -0.137D-05 0.229D-04 0.146D-03 0.168D-04-0.171D-02-0.278D-02
 Coeff-Com:  0.530D-01-0.330D+00 0.128D+01
 Coeff:     -0.137D-05 0.229D-04 0.146D-03 0.168D-04-0.171D-02-0.278D-02
 Coeff:      0.530D-01-0.330D+00 0.128D+01
 Gap=     0.480 Goal=   None    Shift=    0.000
 RMSDP=3.41D-08 MaxDP=7.26D-07 DE=-1.12D-09 OVMax= 2.70D-06

 Cycle  10  Pass 1  IDiag  1:
 E= -115.091221258105     Delta-E=       -0.000000000031 Rises=F Damp=F
 DIIS: error= 6.24D-08 at cycle  10 NSaved=  10.
 NSaved=10 IEnMin=10 EnMin= -115.091221258105     IErMin=10 ErrMin= 6.24D-08
 ErrMax= 6.24D-08 EMaxC= 1.00D-01 BMatC= 4.78D-13 BMatP= 1.20D-11
 IDIUse=1 WtCom= 1.00D+00 WtEn= 0.00D+00
 Coeff-Com: -0.600D-06 0.438D-05 0.149D-04 0.543D-04-0.676D-05-0.128D-02
 Coeff-Com:  0.491D-02-0.240D-02-0.171D+00 0.117D+01
 Coeff:     -0.600D-06 0.438D-05 0.149D-04 0.543D-04-0.676D-05-0.128D-02
 Coeff:      0.491D-02-0.240D-02-0.171D+00 0.117D+01
 Gap=     0.480 Goal=   None    Shift=    0.000
 RMSDP=7.66D-09 MaxDP=1.96D-07 DE=-3.10D-11 OVMax= 5.64D-07

 SCF Done:  E(RHF) =  -115.091221258     A.U. after   10 cycles
             Convg  =    0.7658D-08             -V/T =  2.0019
 KE= 1.148777697427D+02 PE=-3.514833116006D+02 EE= 8.133494044708D+01
 Leave Link  502 at Thu May 19 11:19:30 2022, MaxMem=26843545600 cpu:     117.8
 (Enter /opt/g09gh/gaussian/g09/l801.exe)
 ExpMin= 2.53D-02 ExpMax= 1.53D+04 ExpMxC= 5.22D+02 IAcc=3 IRadAn=         5 AccDes= 0.00D+00
 HarFok:  IExCor=  205 AccDes= 0.00D+00 IRadAn=         5 IDoV=-2
 ScaDFX=  1.000000  1.000000  1.000000  1.000000
 Largest valence mixing into a core orbital is  2.09D-04
 Largest core mixing into a valence orbital is  2.79D-05
 Range of M.O.s used for correlation:     3   184
 NBasis=   184 NAE=     9 NBE=     9 NFC=     2 NFV=     0
 NROrb=    182 NOA=     7 NOB=     7 NVA=   175 NVB=   175

 **** Warning!!: The largest alpha MO coefficient is  0.39640433D+02

 Leave Link  801 at Thu May 19 11:19:31 2022, MaxMem=26843545600 cpu:       1.2
 (Enter /opt/g09gh/gaussian/g09/l906.exe)
 Frozen-core derivative calculation, NFC=   2 NFV=   0.
 FulOut=F Deriv=T AODrv=F NAtomX=     6
   MMem=        7108  MDisk=           7 MDiskD=           7
  W3Min=      347760 MinDsk=      823745 NBas6D=         210
 NBas2D=       22605    NTT=       22155    LW2=     3500000
    MDV= 26843120883 MDiskM=      639074 NBas2p=       17980
 Fully in-core method, ICMem=   522516285.
 IMap=   1   2   3   4   5   6   7   8   9
 JobTyp=1 Pass  1 fully in-core, NPsUse= 10.
 Compute canonical integrals, IntTyp=   4.
 Symmetry not used in FoFDir.
 MinBra= 0 MaxBra= 3 Meth= 1.
 IRaf=       0 NMat=   1 IRICut=       1 DoRegI=T DoRafI=F ISym2E= 0 JSym2E=0.
 Spin components of T(2) and E(2):
     alpha-alpha T2 =       0.1379686093D-01 E2=     -0.5009327783D-01
     alpha-beta  T2 =       0.8761262362D-01 E2=     -0.3374511194D+00
     beta-beta   T2 =       0.1379686093D-01 E2=     -0.5009327783D-01
 The integrals were generated   1 times.
 ANorm=    0.1056033307D+01
 E2 =    -0.4376376751D+00 EUMP2 =    -0.11552885893322D+03
 Leave Link  906 at Thu May 19 11:19:56 2022, MaxMem=26843545600 cpu:     251.4
 (Enter /opt/g09gh/gaussian/g09/l1002.exe)
 Minotr:  Closed shell wavefunction.
          Computing MP2/KS-MP2 derivatives.
          Using Z-Vector for PSCF gradient.
          Skipping F1 and S1 gradient terms here.
          Frozen-core window.
          Direct CPHF calculation.
          Differentiating once with respect to electric field.
                with respect to dipole field.
          Electric field/nuclear overlap derivatives assumed to be zero.
          Using symmetry in CPHF.
          Requested convergence is 1.0D-10 RMS, and 1.0D-09 maximum.
          NewPWx=F KeepS1=T KeepF1=T KeepIn=T MapXYZ=F SortEE=F KeepMc=T.
          MDV=   26843545548 using IRadAn=       0.
          Keep R1 ints in memory in canonical form, NReq=247374473.
 Symmetry not used in FoFDir.
 MinBra= 0 MaxBra= 3 Meth= 1.
 IRaf=       0 NMat=   1 IRICut=       1 DoRegI=T DoRafI=F ISym2E= 0 JSym2E=0.
          Solving linear equations separately, MaxMat=       0.
          There are     1 degrees of freedom in the 1st order CPHF.  IDoFFX=0.
 LinEq1:  Iter=  0 NonCon=     1 RMS=3.20D-03 Max=3.79D-02
 AX will form     1 AO Fock derivatives at one time.
 LinEq1:  Iter=  1 NonCon=     1 RMS=7.36D-04 Max=6.76D-03
 LinEq1:  Iter=  2 NonCon=     1 RMS=2.23D-04 Max=1.87D-03
 LinEq1:  Iter=  3 NonCon=     1 RMS=5.66D-05 Max=5.38D-04
 LinEq1:  Iter=  4 NonCon=     1 RMS=2.54D-05 Max=2.59D-04
 LinEq1:  Iter=  5 NonCon=     1 RMS=4.65D-06 Max=5.22D-05
 LinEq1:  Iter=  6 NonCon=     1 RMS=8.18D-07 Max=5.57D-06
 LinEq1:  Iter=  7 NonCon=     1 RMS=1.39D-07 Max=9.79D-07
 LinEq1:  Iter=  8 NonCon=     1 RMS=2.72D-08 Max=2.92D-07
 LinEq1:  Iter=  9 NonCon=     1 RMS=5.01D-09 Max=5.06D-08
 LinEq1:  Iter= 10 NonCon=     1 RMS=7.93D-10 Max=6.89D-09
 LinEq1:  Iter= 11 NonCon=     1 RMS=1.16D-10 Max=1.10D-09
 LinEq1:  Iter= 12 NonCon=     0 RMS=1.61D-11 Max=1.52D-10
 Linear equations converged to 1.000D-10 1.000D-09 after    12 iterations.
 End of Minotr Frequency-dependent properties file   721 does not exist.
 End of Minotr Frequency-dependent properties file   722 does not exist.
 Leave Link 1002 at Thu May 19 11:20:09 2022, MaxMem=26843545600 cpu:     125.2
 (Enter /opt/g09gh/gaussian/g09/l601.exe)
 Copying SCF densities to generalized density rwf, IOpCl= 0 IROHF=0.

 **********************************************************************

            Population analysis using the MP2 density.

 **********************************************************************

 Orbital symmetries:
       Occupied  (A') (A') (A') (A') (A') (A") (A') (A') (A")
       Virtual   (A') (A') (A") (A') (A') (A') (A") (A') (A') (A')
                 (A") (A') (A") (A') (A') (A") (A') (A") (A') (A')
                 (A") (A") (A') (A') (A') (A') (A') (A") (A') (A")
                 (A') (A') (A") (A') (A') (A") (A') (A') (A") (A')
                 (A') (A") (A') (A") (A") (A') (A") (A") (A') (A')
                 (A') (A") (A') (A') (A') (A") (A') (A') (A') (A")
                 (A') (A") (A") (A") (A') (A') (A") (A') (A') (A')
                 (A") (A') (A") (A') (A') (A") (A') (A") (A") (A')
                 (A') (A') (A") (A') (A") (A') (A") (A") (A') (A')
                 (A') (A") (A') (A') (A") (A') (A") (A') (A') (A')
                 (A") (A') (A') (A") (A") (A') (A') (A') (A') (A")
                 (A') (A") (A") (A') (A") (A') (A') (A") (A') (A")
                 (A') (A') (A") (A") (A') (A") (A') (A') (A") (A')
                 (A") (A') (A") (A') (A') (A") (A") (A') (A') (A')
                 (A') (A") (A") (A') (A') (A") (A') (A') (A") (A')
                 (A") (A') (A") (A') (A") (A') (A') (A') (A') (A')
                 (A") (A") (A') (A") (A') (A") (A") (A') (A') (A")
                 (A') (A') (A') (A') (A')
 The electronic state is 1-A'.
 Alpha  occ. eigenvalues --  -20.56097 -11.27289  -1.35489  -0.92371  -0.68874
 Alpha  occ. eigenvalues --   -0.61883  -0.59109  -0.50479  -0.45191
 Alpha virt. eigenvalues --    0.02843   0.04295   0.04661   0.05300   0.09900
 Alpha virt. eigenvalues --    0.11642   0.12920   0.13997   0.16529   0.17310
 Alpha virt. eigenvalues --    0.18290   0.21055   0.21504   0.26784   0.26926
 Alpha virt. eigenvalues --    0.29322   0.30003   0.32115   0.32143   0.33296
 Alpha virt. eigenvalues --    0.34313   0.35117   0.36957   0.39121   0.40857
 Alpha virt. eigenvalues --    0.43274   0.43646   0.44547   0.45383   0.46047
 Alpha virt. eigenvalues --    0.47935   0.50400   0.51283   0.52444   0.66364
 Alpha virt. eigenvalues --    0.66838   0.67998   0.75245   0.77030   0.77989
 Alpha virt. eigenvalues --    0.79144   0.80549   0.85061   0.85721   0.88579
 Alpha virt. eigenvalues --    0.89988   0.93291   0.93382   0.93728   0.94811
 Alpha virt. eigenvalues --    0.97358   0.97737   0.98373   1.01564   1.04310
 Alpha virt. eigenvalues --    1.07052   1.07187   1.09310   1.10881   1.12331
 Alpha virt. eigenvalues --    1.13916   1.14399   1.17724   1.19882   1.20102
 Alpha virt. eigenvalues --    1.24930   1.29656   1.31471   1.37088   1.40754
 Alpha virt. eigenvalues --    1.43633   1.53293   1.55087   1.55888   1.59045
 Alpha virt. eigenvalues --    1.60088   1.61288   1.64518   1.65672   1.66825
 Alpha virt. eigenvalues --    1.69995   1.73268   1.75315   1.88744   1.93208
 Alpha virt. eigenvalues --    1.95613   1.97453   2.03259   2.03603   2.06927
 Alpha virt. eigenvalues --    2.07534   2.16217   2.17434   2.37486   2.47254
 Alpha virt. eigenvalues --    2.48044   2.51321   2.54403   2.58173   2.73178
 Alpha virt. eigenvalues --    2.75592   2.78271   2.84041   2.88535   2.94049
 Alpha virt. eigenvalues --    2.97607   3.04833   3.19121   3.31610   3.37738
 Alpha virt. eigenvalues --    3.52396   3.54811   3.57621   3.62140   3.63434
 Alpha virt. eigenvalues --    3.70352   3.76819   3.85213   3.88395   3.92920
 Alpha virt. eigenvalues --    3.93515   3.98323   4.05547   4.07680   4.09485
 Alpha virt. eigenvalues --    4.16521   4.19421   4.22087   4.22595   4.27342
 Alpha virt. eigenvalues --    4.46766   4.49047   4.51071   4.53701   4.59464
 Alpha virt. eigenvalues --    4.62892   4.75183   4.75577   4.75699   4.90356
 Alpha virt. eigenvalues --    4.95816   5.01216   5.02471   5.04927   5.12020
 Alpha virt. eigenvalues --    5.22717   5.23744   5.36618   5.45980   5.51321
 Alpha virt. eigenvalues --    5.57226   5.57349   5.62583   5.69352   6.08288
 Alpha virt. eigenvalues --    6.09060   6.11080   6.15164   6.55305   6.60888
 Alpha virt. eigenvalues --    6.62367   6.87617   6.88926   7.05444   7.24725
 Alpha virt. eigenvalues --    7.28723   7.36754   7.45426   7.52116   7.72218
 Alpha virt. eigenvalues --    7.83376   8.12662   8.47933  15.37958  17.57416
          Condensed to atoms (all electrons):
              1          2          3          4          5          6
     1  O    8.381179  -0.007683  -0.001295  -0.001295  -0.020488   0.103492
     2  C   -0.007683   5.983624   0.238676   0.238676   0.252886   0.016328
     3  H   -0.001295   0.238676   0.447216  -0.010238   0.002652   0.006360
     4  H   -0.001295   0.238676  -0.010238   0.447216   0.002652   0.006360
     5  H   -0.020488   0.252886   0.002652   0.002652   0.418678   0.000130
     6  H    0.103492   0.016328   0.006360   0.006360   0.000130   0.667662
 Mulliken atomic charges:
              1
     1  O   -0.453910
     2  C   -0.722507
     3  H    0.316629
     4  H    0.316629
     5  H    0.343490
     6  H    0.199668
 Sum of Mulliken atomic charges =   0.00000
 Mulliken charges with hydrogens summed into heavy atoms:
              1
     1  O   -0.254242
     2  C    0.254242
 Sum of Mulliken charges with hydrogens summed into heavy atoms =   0.00000
 Electronic spatial extent (au):  <R**2>=             85.2475
 Charge=              0.0000 electrons
 Dipole moment (field-independent basis, Debye):
    X=              1.3654    Y=              1.0300    Z=              0.0000  Tot=              1.7104
 Quadrupole moment (field-independent basis, Debye-Ang):
   XX=            -11.8903   YY=            -13.7165   ZZ=            -14.0333
   XY=             -2.0810   XZ=              0.0000   YZ=              0.0000
 Traceless Quadrupole moment (field-independent basis, Debye-Ang):
   XX=              1.3231   YY=             -0.5031   ZZ=             -0.8200
   XY=             -2.0810   XZ=              0.0000   YZ=              0.0000
 Octapole moment (field-independent basis, Debye-Ang**2):
  XXX=              1.0416  YYY=             -3.4475  ZZZ=              0.0000  XYY=              2.2897
  XXY=             -2.1179  XXZ=              0.0000  XZZ=              0.6828  YZZ=              0.0036
  YYZ=              0.0000  XYZ=              0.0000
 Hexadecapole moment (field-independent basis, Debye-Ang**3):
 XXXX=            -20.0357 YYYY=            -65.7197 ZZZZ=            -20.9995 XXXY=             -1.2942
 XXXZ=              0.0000 YYYX=             -1.3698 YYYZ=              0.0000 ZZZX=              0.0000
 ZZZY=              0.0000 XXYY=            -13.0348 XXZZ=             -7.2922 YYZZ=            -15.0584
 XXYZ=              0.0000 YYXZ=              0.0000 ZZXY=              1.0126
 N-N= 4.017938015266D+01 E-N=-3.516482470061D+02  KE= 1.153797473329D+02
 Symmetry A'   KE= 1.087747340700D+02
 Symmetry A"   KE= 6.605013262922D+00
 No NMR shielding tensors so no spin-rotation constants.
 Leave Link  601 at Thu May 19 11:20:10 2022, MaxMem=26843545600 cpu:       3.4
 (Enter /opt/g09gh/gaussian/g09/l9999.exe)
 1\1\GINC-NODE38\SP\RMP2-FC\Aug-CC-pVTZ\C1H4O1\LIUCHW\19-May-2022\0\\#P
  MP2/aug-cc-pvtz SP Density=MP2 MaxDisk=500GB\\Generated by TIPTOP/IP_
 ParmGen.py\\0,1\O,0,-0.75087,0.1227,0.\C,0,0.66654,-0.01947,0.\H,0,1.0
 3197,-0.54304,0.8921\H,0,1.03197,-0.54304,-0.8921\H,0,1.07456,0.9912,0
 .\H,0,-1.1308,-0.76994,0.\\Version=EM64L-G09RevA.02\State=1-A'\HF=-115
 .0912213\MP2=-115.5288589\RMSD=7.658e-09\Dipole=0.3496021,-0.5749677,0
 .\Quadrupole=-0.053264,0.6628824,-0.6096183,1.6512058,0.,0.\PG=CS [SG(
 C1H2O1),X(H2)]\\@


 IT IS A SIMPLE TASK TO MAKE THINGS COMPLEX,
 BUT A COMPLEX TASK TO MAKE THEM SIMPLE.
 Job cpu time:  0 days  0 hours  8 minutes 28.2 seconds.
 File lengths (MBytes):  RWF=     15 Int=      0 D2E=      0 Chk=      3 Scr=      1
 Normal termination of Gaussian 09 at Thu May 19 11:20:10 2022.
