Generated by TIPTOP/IP_ParmGen.py                                       
SP        RMP2-FC                                                     6-311G(d,p)         
Number of atoms                            I                6
Info1-9                                    I   N=           9
          15          15           0           0           0         110
           1           2           1
Charge                                     I                0
Multiplicity                               I                1
Number of electrons                        I               18
Number of alpha electrons                  I                9
Number of beta electrons                   I                9
Number of basis functions                  I               60
Number of independent functions            I               60
Number of point charges in /Mol/           I                0
Number of translation vectors              I                0
Atomic numbers                             I   N=           6
           8           6           1           1           1           1
Nuclear charges                            R   N=           6
  8.00000000E+00  6.00000000E+00  1.00000000E+00  1.00000000E+00  1.00000000E+00
  1.00000000E+00
Current cartesian coordinates              R   N=          18
 -8.91033816E-02 -1.43499370E+00  0.00000000E+00 -8.91033816E-02  1.25696307E+00
  0.00000000E+00  8.26441309E-01  2.04282232E+00  1.68582468E+00  8.26441309E-01
  2.04282232E+00 -1.68582468E+00 -2.06640929E+00  1.83354898E+00  0.00000000E+00
  1.66097402E+00 -1.98102247E+00  0.00000000E+00
Force Field                                I                0
Int Atom Types                             I   N=           6
           0           0           0           0           0           0
MM charges                                 R   N=           6
  0.00000000E+00  0.00000000E+00  0.00000000E+00  0.00000000E+00  0.00000000E+00
  0.00000000E+00
Integer atomic weights                     I   N=           6
          16          12           1           1           1           1
Real atomic weights                        R   N=           6
  1.59949146E+01  1.20000000E+01  1.00782504E+00  1.00782504E+00  1.00782504E+00
  1.00782504E+00
Atom fragment info                         I   N=           6
           0           0           0           0           0           0
Atom residue num                           I   N=           6
           0           0           0           0           0           0
Nuclear spins                              I   N=           6
           0           0           1           1           1           1
Nuclear ZEff                               R   N=           6
 -5.60000000E+00 -3.60000000E+00 -1.00000000E+00 -1.00000000E+00 -1.00000000E+00
 -1.00000000E+00
Nuclear QMom                               R   N=           6
  0.00000000E+00  0.00000000E+00  0.00000000E+00  0.00000000E+00  0.00000000E+00
  0.00000000E+00
Nuclear GFac                               R   N=           6
  0.00000000E+00  0.00000000E+00  2.79284600E+00  2.79284600E+00  2.79284600E+00
  2.79284600E+00
MicOpt                                     I   N=           6
          -1          -1          -1          -1          -1          -1
Number of contracted shells                I               26
Number of primitive shells                 I               48
Pure/Cartesian d shells                    I                0
Pure/Cartesian f shells                    I                0
Highest angular momentum                   I                2
Largest degree of contraction              I                6
Shell types                                I   N=          26
           0          -1          -1          -1          -2           0
          -1          -1          -1          -2           0           0
           0           1           0           0           0           1
           0           0           0           1           0           0
           0           1
Number of primitives per shell             I   N=          26
           6           3           1           1           1           6
           3           1           1           1           3           1
           1           1           3           1           1           1
           3           1           1           1           3           1
           1           1
Shell to atom map                          I   N=          26
           1           1           1           1           1           2
           2           2           2           2           3           3
           3           3           4           4           4           4
           5           5           5           5           6           6
           6           6
Primitive exponents                        R   N=          48
  8.58850000E+03  1.29723000E+03  2.99296000E+02  8.73771000E+01  2.56789000E+01
  3.74004000E+00  4.21175000E+01  9.62837000E+00  2.85332000E+00  9.05661000E-01
  2.55611000E-01  1.29200000E+00  4.56324000E+03  6.82024000E+02  1.54973000E+02
  4.44553000E+01  1.30290000E+01  1.82773000E+00  2.09642000E+01  4.80331000E+00
  1.45933000E+00  4.83456000E-01  1.45585000E-01  6.26000000E-01  3.38650000E+01
  5.09479000E+00  1.15879000E+00  3.25840000E-01  1.02741000E-01  7.50000000E-01
  3.38650000E+01  5.09479000E+00  1.15879000E+00  3.25840000E-01  1.02741000E-01
  7.50000000E-01  3.38650000E+01  5.09479000E+00  1.15879000E+00  3.25840000E-01
  1.02741000E-01  7.50000000E-01  3.38650000E+01  5.09479000E+00  1.15879000E+00
  3.25840000E-01  1.02741000E-01  7.50000000E-01
Contraction coefficients                   R   N=          48
  1.89515008E-03  1.43859006E-02  7.07320031E-02  2.40001011E-01  5.94797026E-01
  2.80802012E-01  1.13889012E-01  9.20811101E-01 -3.27447036E-03  1.00000000E+00
  1.00000000E+00  1.00000000E+00  1.96665025E-03  1.52306019E-02  7.61269097E-02
  2.60801033E-01  6.16462078E-01  2.21006028E-01  1.14660081E-01  9.19999648E-01
 -3.03068213E-03  1.00000000E+00  1.00000000E+00  1.00000000E+00  2.54938145E-02
  1.90373109E-01  8.52161486E-01  1.00000000E+00  1.00000000E+00  1.00000000E+00
  2.54938145E-02  1.90373109E-01  8.52161486E-01  1.00000000E+00  1.00000000E+00
  1.00000000E+00  2.54938145E-02  1.90373109E-01  8.52161486E-01  1.00000000E+00
  1.00000000E+00  1.00000000E+00  2.54938145E-02  1.90373109E-01  8.52161486E-01
  1.00000000E+00  1.00000000E+00  1.00000000E+00
P(S=P) Contraction coefficients            R   N=          48
  0.00000000E+00  0.00000000E+00  0.00000000E+00  0.00000000E+00  0.00000000E+00
  0.00000000E+00  3.65113974E-02  2.37152983E-01  8.19701941E-01  1.00000000E+00
  1.00000000E+00  0.00000000E+00  0.00000000E+00  0.00000000E+00  0.00000000E+00
  0.00000000E+00  0.00000000E+00  0.00000000E+00  4.02486927E-02  2.37593957E-01
  8.15853851E-01  1.00000000E+00  1.00000000E+00  0.00000000E+00  0.00000000E+00
  0.00000000E+00  0.00000000E+00  0.00000000E+00  0.00000000E+00  0.00000000E+00
  0.00000000E+00  0.00000000E+00  0.00000000E+00  0.00000000E+00  0.00000000E+00
  0.00000000E+00  0.00000000E+00  0.00000000E+00  0.00000000E+00  0.00000000E+00
  0.00000000E+00  0.00000000E+00  0.00000000E+00  0.00000000E+00  0.00000000E+00
  0.00000000E+00  0.00000000E+00  0.00000000E+00
Coordinates of each shell                  R   N=          78
 -8.91033816E-02 -1.43499370E+00  0.00000000E+00 -8.91033816E-02 -1.43499370E+00
  0.00000000E+00 -8.91033816E-02 -1.43499370E+00  0.00000000E+00 -8.91033816E-02
 -1.43499370E+00  0.00000000E+00 -8.91033816E-02 -1.43499370E+00  0.00000000E+00
 -8.91033816E-02  1.25696307E+00  0.00000000E+00 -8.91033816E-02  1.25696307E+00
  0.00000000E+00 -8.91033816E-02  1.25696307E+00  0.00000000E+00 -8.91033816E-02
  1.25696307E+00  0.00000000E+00 -8.91033816E-02  1.25696307E+00  0.00000000E+00
  8.26441309E-01  2.04282232E+00  1.68582468E+00  8.26441309E-01  2.04282232E+00
  1.68582468E+00  8.26441309E-01  2.04282232E+00  1.68582468E+00  8.26441309E-01
  2.04282232E+00  1.68582468E+00  8.26441309E-01  2.04282232E+00 -1.68582468E+00
  8.26441309E-01  2.04282232E+00 -1.68582468E+00  8.26441309E-01  2.04282232E+00
 -1.68582468E+00  8.26441309E-01  2.04282232E+00 -1.68582468E+00 -2.06640929E+00
  1.83354898E+00  0.00000000E+00 -2.06640929E+00  1.83354898E+00  0.00000000E+00
 -2.06640929E+00  1.83354898E+00  0.00000000E+00 -2.06640929E+00  1.83354898E+00
  0.00000000E+00  1.66097402E+00 -1.98102247E+00  0.00000000E+00  1.66097402E+00
 -1.98102247E+00  0.00000000E+00  1.66097402E+00 -1.98102247E+00  0.00000000E+00
  1.66097402E+00 -1.98102247E+00  0.00000000E+00
Constraint Structure                       R   N=          18
 -8.91033816E-02 -1.43499370E+00  0.00000000E+00 -8.91033816E-02  1.25696307E+00
  0.00000000E+00  8.26441309E-01  2.04282232E+00  1.68582468E+00  8.26441309E-01
  2.04282232E+00 -1.68582468E+00 -2.06640929E+00  1.83354898E+00  0.00000000E+00
  1.66097402E+00 -1.98102247E+00  0.00000000E+00
Num ILSW                                   I              100
ILSW                                       I   N=         100
           0           0           0           0           2           0
           0           0           0           0           0 67108864000
           0           0           0           0           0           0
           0           0           0           0           0           0
           1           0           0           0           0           0
           0           0      100000           0          -1           0
           0           0           0           0           0           0
           0           0           0           1           0           0
           0           0           1           0           0           0
           0           0           4          40           0           0
           0           0           0           0           0           0
           0           0           0           0           0           0
           0           0           0           0           0           0
           0           0           0           0           0           0
           0           0           0           0           0           0
           0           0           0           0           0           0
           0           0           0           0
Num RLSW                                   I               40
RLSW                                       R   N=          40
  1.00000000E+00  1.00000000E+00  1.00000000E+00  1.00000000E+00  1.00000000E+00
  0.00000000E+00  0.00000000E+00  1.00000000E+00  0.00000000E+00  0.00000000E+00
  0.00000000E+00  0.00000000E+00  1.00000000E+00  0.00000000E+00  0.00000000E+00
  0.00000000E+00  0.00000000E+00  1.00000000E+00  0.00000000E+00  0.00000000E+00
  0.00000000E+00  0.00000000E+00  1.00000000E+00  0.00000000E+00  0.00000000E+00
  0.00000000E+00  0.00000000E+00  1.00000000E+00  0.00000000E+00  0.00000000E+00
  0.00000000E+00  0.00000000E+00  0.00000000E+00  0.00000000E+00  0.00000000E+00
  0.00000000E+00  0.00000000E+00  0.00000000E+00  1.00000000E+00  1.00000000E+00
MxBond                                     I                4
NBond                                      I   N=           6
           2           4           1           1           1           1
IBond                                      I   N=          24
           2           6           0           0           1           3
           4           5           2           0           0           0
           2           0           0           0           2           0
           0           0           1           0           0           0
RBond                                      R   N=          24
  1.00000000E+00  1.00000000E+00  0.00000000E+00  0.00000000E+00  1.00000000E+00
  1.00000000E+00  1.00000000E+00  1.00000000E+00  1.00000000E+00  0.00000000E+00
  0.00000000E+00  0.00000000E+00  1.00000000E+00  0.00000000E+00  0.00000000E+00
  0.00000000E+00  1.00000000E+00  0.00000000E+00  0.00000000E+00  0.00000000E+00
  1.00000000E+00  0.00000000E+00  0.00000000E+00  0.00000000E+00
Virial Ratio                               R      2.000892438350269E+00
SCF Energy                                 R     -1.150741515608569E+02
MP2 Energy                                 R     -1.154361914913734E+02
Total Energy                               R     -1.154361914913734E+02
Post-SCF wavefunction norm                 R      1.048690160418925E+00
RMS Density                                R      3.409583682008591E-09
External E-field                           R   N=          35
  0.00000000E+00  0.00000000E+00  0.00000000E+00  0.00000000E+00  0.00000000E+00
  0.00000000E+00  0.00000000E+00  0.00000000E+00  0.00000000E+00  0.00000000E+00
  0.00000000E+00  0.00000000E+00  0.00000000E+00  0.00000000E+00  0.00000000E+00
  0.00000000E+00  0.00000000E+00  0.00000000E+00  0.00000000E+00  0.00000000E+00
  0.00000000E+00  0.00000000E+00  0.00000000E+00  0.00000000E+00  0.00000000E+00
  0.00000000E+00  0.00000000E+00  0.00000000E+00  0.00000000E+00  0.00000000E+00
  0.00000000E+00  0.00000000E+00  0.00000000E+00  0.00000000E+00  0.00000000E+00
IOpCl                                      I                0
IROHF                                      I                0
Alpha Orbital Energies                     R   N=          60
 -2.05459301E+01 -1.12708732E+01 -1.34779541E+00 -9.21261950E-01 -6.83252114E-01
 -6.15333094E-01 -5.86129412E-01 -4.99961808E-01 -4.46751424E-01  1.53235164E-01
  1.87428111E-01  2.25220343E-01  2.31219926E-01  3.41156890E-01  4.54160453E-01
  4.78671603E-01  5.78314182E-01  6.79053595E-01  7.25561080E-01  7.84261337E-01
  7.96745659E-01  8.99700339E-01  1.02369937E+00  1.05237528E+00  1.11347291E+00
  1.31434547E+00  1.38781795E+00  1.59784899E+00  1.61924525E+00  1.71164241E+00
  1.71730373E+00  1.73677668E+00  1.74053951E+00  1.86915507E+00  1.93725658E+00
  2.03930119E+00  2.25396259E+00  2.29056128E+00  2.39328193E+00  2.46947795E+00
  2.61230271E+00  2.64750461E+00  2.70827732E+00  2.79823542E+00  2.81841210E+00
  2.90204637E+00  3.09666061E+00  3.29812896E+00  3.46749080E+00  3.58979280E+00
  3.67159830E+00  4.06185505E+00  4.15831771E+00  4.29757786E+00  4.36641678E+00
  5.40548611E+00  5.78493349E+00  6.18160441E+00  2.50137874E+01  5.15726743E+01
Alpha MO coefficients                      R   N=        3600
  5.51468967E-01  4.71678670E-01  1.44567019E-03  1.03162428E-03  0.00000000E+00
  5.52837302E-03 -5.61312510E-04 -3.69949582E-04  0.00000000E+00 -7.77994422E-04
  1.35018305E-04 -1.41932233E-04  0.00000000E+00  1.69726016E-04  0.00000000E+00
  0.00000000E+00  5.85028356E-05  5.66021660E-05 -2.77613334E-06 -3.05809739E-05
 -1.35924100E-05 -2.30015281E-05  0.00000000E+00  8.02871707E-05  4.87145579E-05
 -2.58419266E-04  0.00000000E+00  4.95052962E-04 -1.34548776E-04 -2.01286312E-04
  0.00000000E+00 -5.69057791E-05  0.00000000E+00  0.00000000E+00 -1.23243103E-04
 -3.13059181E-05  9.54745282E-06 -4.72448721E-05 -1.75339492E-07  8.88730329E-06
  2.41942103E-05 -1.86853562E-05  9.54745282E-06 -4.72448721E-05 -1.75339492E-07
  8.88730329E-06  2.41942103E-05  1.86853562E-05  2.95115469E-05 -1.20101010E-04
 -4.55086140E-05  1.66943174E-05  1.77881379E-07  0.00000000E+00  2.01226737E-04
  1.17906189E-04  6.10357307E-05 -8.22768634E-05  7.93366744E-05  0.00000000E+00
 -6.64538400E-05 -1.19227958E-04  7.58386329E-06  9.60757523E-05  0.00000000E+00
  2.66804071E-04 -1.20225269E-05  5.30956858E-04  0.00000000E+00  3.77340113E-04
  1.97677026E-05  1.65136584E-04  0.00000000E+00 -1.04380459E-04  0.00000000E+00
  0.00000000E+00 -1.99712711E-04  2.48195579E-05  5.63475404E-01  4.66569929E-01
  1.06991014E-04 -9.18687931E-04  0.00000000E+00  3.98272059E-03 -8.99664053E-05
  7.22561643E-04  0.00000000E+00 -1.21535775E-03  4.63738995E-05 -1.20344888E-04
  0.00000000E+00  1.11683638E-04  0.00000000E+00  0.00000000E+00  2.59958816E-04
 -8.19000449E-07  3.40663726E-04  1.07933644E-04  2.40248139E-04  4.33161212E-06
 -3.86940331E-05  4.33232003E-06  3.40663726E-04  1.07933644E-04  2.40248139E-04
  4.33161212E-06 -3.86940331E-05 -4.33232003E-06  3.37393273E-04  7.82579292E-05
  2.75299939E-04 -2.26207150E-05 -3.00088951E-05  0.00000000E+00 -1.48939730E-05
  8.22877320E-06 -2.34430758E-05 -3.70064246E-05  1.19492348E-05  0.00000000E+00
 -1.09796492E-01 -1.83458375E-01  2.56529431E-02  2.12925217E-02  0.00000000E+00
  5.21455364E-01  4.44352677E-02  3.93574861E-02  0.00000000E+00  3.96994319E-01
  1.55173895E-02  3.03878339E-02  0.00000000E+00 -7.65352284E-03  0.00000000E+00
  0.00000000E+00 -9.70529876E-04 -1.45665775E-03 -3.68935948E-02 -6.03562121E-02
  1.68455955E-03 -3.91552091E-02  0.00000000E+00  1.51061322E-01  4.31916648E-03
 -7.86752939E-02  0.00000000E+00  4.58734463E-03  4.60188970E-03  4.50297191E-03
  0.00000000E+00 -1.41971046E-02  0.00000000E+00  0.00000000E+00 -2.33276281E-02
 -2.70706955E-03  1.46140620E-02  2.96659480E-02 -1.09886261E-03 -3.70883999E-03
 -4.37454416E-03 -6.56396238E-03  1.46140620E-02  2.96659480E-02 -1.09886261E-03
 -3.70883999E-03 -4.37454416E-03  6.56396238E-03  1.50340094E-02  3.15060959E-02
  1.20768735E-03  7.89857440E-03 -2.91947777E-03  0.00000000E+00  8.63030914E-02
  7.31433335E-02 -3.81112558E-04 -2.39758923E-02  1.03838055E-02  0.00000000E+00
  3.18766371E-02  5.35910210E-02 -3.42581343E-02  7.65027622E-02  0.00000000E+00
 -1.55538112E-01 -5.57071552E-02  1.22249954E-01  0.00000000E+00 -1.49607817E-01
 -2.20603385E-02  6.89307632E-02  0.00000000E+00 -1.37826387E-03  0.00000000E+00
  0.00000000E+00 -1.28234677E-02  4.55367303E-03 -9.48247999E-02 -1.57645216E-01
 -6.91282364E-03  3.13207828E-02  0.00000000E+00  4.10985401E-01 -9.87084844E-03
  2.87727074E-02  0.00000000E+00  2.48775302E-01  5.80560902E-03  2.57578076E-02
  0.00000000E+00 -2.55941626E-05  0.00000000E+00  0.00000000E+00  2.34690174E-03
  2.06248856E-03  8.35621254E-02  1.16619714E-01  3.96501236E-03 -9.54095301E-03
 -6.03387628E-03 -1.65121943E-02  8.35621254E-02  1.16619714E-01  3.96501236E-03
 -9.54095301E-03 -6.03387628E-03  1.65121943E-02  8.70296846E-02  1.25502643E-01
  7.55041846E-03  2.04149459E-02 -3.55753901E-03  0.00000000E+00 -6.76149741E-02
 -8.18448167E-02 -1.32084773E-02  1.64468168E-02 -7.89619018E-04  0.00000000E+00
  2.12056259E-02  3.61049520E-02  1.74062912E-01 -7.88082062E-02  0.00000000E+00
 -1.10927715E-01  2.67834113E-01 -1.25688304E-01  0.00000000E+00 -1.61408817E-01
  1.82385646E-01 -7.28098673E-02  0.00000000E+00 -4.95163045E-03  0.00000000E+00
  0.00000000E+00  1.92729473E-02  2.07332606E-03 -1.05722903E-02 -1.70346259E-02
  8.79667071E-02  8.16685274E-02  0.00000000E+00  4.02183456E-02  1.46937201E-01
  1.41065770E-01  0.00000000E+00  5.55685126E-02  9.03120445E-02  5.71706246E-02
  0.00000000E+00  2.36728271E-02  0.00000000E+00  0.00000000E+00  1.66744948E-02
 -7.96200945E-03  6.58862104E-02  8.92189495E-02  2.43869936E-02 -8.55718344E-05
  5.32030841E-04 -8.05270930E-03  6.58862104E-02  8.92189495E-02  2.43869936E-02
 -8.55718344E-05  5.32030841E-04  8.05270930E-03 -3.44604342E-02 -4.14153335E-02
 -1.33602785E-02 -1.83547753E-03  2.78165017E-03  0.00000000E+00  1.33469986E-01
  2.05616538E-01  4.08770977E-02 -2.61379559E-02  1.16134817E-02  0.00000000E+00
  0.00000000E+00  0.00000000E+00  0.00000000E+00  0.00000000E+00  1.53098049E-01
  0.00000000E+00  0.00000000E+00  0.00000000E+00  2.38257416E-01  0.00000000E+00
  0.00000000E+00  0.00000000E+00  2.07696137E-01  0.00000000E+00  7.12386385E-03
  1.20980775E-02  0.00000000E+00  0.00000000E+00  0.00000000E+00  0.00000000E+00
  0.00000000E+00  0.00000000E+00  1.62923775E-01  0.00000000E+00  0.00000000E+00
  0.00000000E+00  2.64032793E-01  0.00000000E+00  0.00000000E+00  0.00000000E+00
  1.52070263E-01  0.00000000E+00  2.29775252E-02  1.25762521E-03  0.00000000E+00
  0.00000000E+00  1.09652502E-01  1.64585095E-01  6.56383141E-02 -8.07941341E-03
 -5.44439766E-03 -7.39469833E-03 -1.09652502E-01 -1.64585095E-01 -6.56383141E-02
  8.07941341E-03  5.44439766E-03 -7.39469833E-03  0.00000000E+00  0.00000000E+00
  0.00000000E+00  0.00000000E+00  0.00000000E+00  8.88550886E-03  0.00000000E+00
  0.00000000E+00  0.00000000E+00  0.00000000E+00  0.00000000E+00  1.58707015E-02
  1.39306587E-02  2.35834037E-02  4.52358701E-02  1.82195652E-01  0.00000000E+00
 -7.12291416E-02  6.91162829E-02  2.82512177E-01  0.00000000E+00 -1.03240354E-01
  6.72716852E-02  2.31608058E-01  0.00000000E+00 -6.47815378E-03  0.00000000E+00
  0.00000000E+00 -1.18517055E-02  1.58318346E-02 -4.37073703E-04 -1.59522445E-03
  1.12102078E-01 -1.18388115E-01  0.00000000E+00  6.87595457E-03  1.83406331E-01
 -2.10946300E-01  0.00000000E+00 -1.79744979E-02  1.35154337E-01 -9.71681672E-02
  0.00000000E+00 -6.87338919E-03  0.00000000E+00  0.00000000E+00 -4.32185115E-02
  4.03783992E-04  3.51474309E-03  4.92653554E-03  9.55574365E-04  3.70439434E-03
 -5.31113695E-03 -2.09029506E-03  3.51474309E-03  4.92653554E-03  9.55574365E-04
  3.70439434E-03 -5.31113695E-03  2.09029506E-03 -1.24177011E-01 -1.71899021E-01
 -6.33820959E-02 -1.03284654E-02 -1.84163540E-03  0.00000000E+00 -3.18795771E-02
 -4.02717697E-02 -4.26611746E-02  1.01633637E-02  1.74057931E-02  0.00000000E+00
  2.53112962E-02  4.30172422E-02  1.63534650E-01  9.11012028E-02  0.00000000E+00
 -1.30215116E-01  2.43064871E-01  1.35521716E-01  0.00000000E+00 -2.18805737E-01
  2.25783653E-01  1.55032320E-01  0.00000000E+00 -1.02050186E-02  0.00000000E+00
  0.00000000E+00  5.24039654E-03  1.65771969E-03 -4.55320564E-03 -7.91440751E-03
 -1.34509424E-01 -4.97183094E-02  0.00000000E+00  2.45846948E-02 -2.07074493E-01
 -9.03598241E-02  0.00000000E+00 -1.62902687E-02 -1.12698562E-01 -2.07703515E-02
  0.00000000E+00 -2.33203344E-02  0.00000000E+00  0.00000000E+00  1.34885308E-03
 -3.03183301E-02 -7.19264378E-02 -1.21685418E-01 -6.33814763E-02 -4.83831790E-03
  7.04191588E-04  9.95829736E-03 -7.19264378E-02 -1.21685418E-01 -6.33814763E-02
 -4.83831790E-03  7.04191588E-04 -9.95829736E-03  1.13931575E-01  2.18246848E-01
  7.90576175E-02  1.46715747E-02 -8.14416597E-03  0.00000000E+00  8.46225266E-02
  1.59622748E-01  3.56289256E-02 -1.30094503E-02  1.87071791E-02  0.00000000E+00
  0.00000000E+00  0.00000000E+00  0.00000000E+00  0.00000000E+00  2.49752801E-01
  0.00000000E+00  0.00000000E+00  0.00000000E+00  3.74755544E-01  0.00000000E+00
  0.00000000E+00  0.00000000E+00  4.16046508E-01  0.00000000E+00  1.05234247E-02
  4.43766396E-03  0.00000000E+00  0.00000000E+00  0.00000000E+00  0.00000000E+00
  0.00000000E+00  0.00000000E+00 -1.03721445E-01  0.00000000E+00  0.00000000E+00
  0.00000000E+00 -1.59214671E-01  0.00000000E+00  0.00000000E+00  0.00000000E+00
 -7.95353860E-02  0.00000000E+00 -1.40262933E-02 -3.79004674E-02  0.00000000E+00
  0.00000000E+00 -9.23826757E-02 -1.88154167E-01 -8.18811091E-02  7.60678607E-03
  5.90943974E-03  6.93236416E-03  9.23826757E-02  1.88154167E-01  8.18811091E-02
 -7.60678607E-03 -5.90943974E-03  6.93236416E-03  0.00000000E+00  0.00000000E+00
  0.00000000E+00  0.00000000E+00  0.00000000E+00 -8.16461249E-03  0.00000000E+00
  0.00000000E+00  0.00000000E+00  0.00000000E+00  0.00000000E+00  2.57091658E-02
 -1.97810814E-02 -3.29510023E-02  5.37167422E-02 -2.88342909E-02  0.00000000E+00
  8.27934725E-02  7.33175823E-02 -2.02275662E-02  0.00000000E+00  3.59506661E-01
  1.49963292E-01 -1.99672533E-01  0.00000000E+00 -4.65478764E-04  0.00000000E+00
  0.00000000E+00  1.84480029E-03  1.97471275E-03 -2.97841128E-02 -4.73497246E-02
  1.69633010E-02  6.08715338E-02  0.00000000E+00  1.68428524E-02  1.09502469E-02
  6.55335528E-02  0.00000000E+00  1.67224493E+00  1.39874819E-01  2.46309522E-01
  0.00000000E+00 -4.94919638E-03  0.00000000E+00  0.00000000E+00 -5.51693709E-03
 -7.19261540E-03 -3.51993021E-03 -1.25198822E-02 -7.83293993E-01 -2.34768031E-03
  6.61845134E-03 -3.78217365E-04 -3.51993021E-03 -1.25198822E-02 -7.83293993E-01
 -2.34768031E-03  6.61845134E-03  3.78217365E-04 -2.24057320E-03 -4.71008244E-02
 -4.32119558E-01 -5.81849232E-03  8.58334029E-03  0.00000000E+00 -3.22411598E-02
  9.88397845E-02 -9.31076733E-01 -1.10472852E-02  7.75904519E-03  0.00000000E+00
  2.30688260E-02  3.80503055E-02 -6.31476015E-02 -1.05332358E-02  0.00000000E+00
 -7.93737256E-02 -8.61274098E-02 -3.71138982E-02  0.00000000E+00 -5.72051054E-01
 -2.06943665E-01  1.12513498E-02  0.00000000E+00  4.54336824E-04  0.00000000E+00
  0.00000000E+00 -5.23958760E-03 -4.38809442E-03 -3.65570135E-02 -5.93767160E-02
 -2.32989381E-02  5.25768609E-03  0.00000000E+00  8.86522725E-02 -1.03978817E-02
 -1.98528910E-02  0.00000000E+00  1.27999593E+00 -2.58963738E-01  1.43566929E-01
  0.00000000E+00  5.89367523E-04  0.00000000E+00  0.00000000E+00  4.79181455E-03
  6.28753534E-03 -1.30866336E-02  7.77998145E-02 -6.08453424E-01  2.39111943E-03
 -7.87455298E-03 -3.88475201E-03 -1.30866336E-02  7.77998145E-02 -6.08453424E-01
  2.39111943E-03 -7.87455298E-03  3.88475201E-03 -1.33598603E-02  7.23033017E-02
 -1.04885284E+00  7.26729630E-03 -8.14552693E-03  0.00000000E+00  3.92903314E-02
 -8.45091829E-02  1.19890805E+00  1.60478173E-03 -1.03295163E-02  0.00000000E+00
  0.00000000E+00  0.00000000E+00  0.00000000E+00  0.00000000E+00  1.52307314E-02
  0.00000000E+00  0.00000000E+00  0.00000000E+00  8.75333107E-03  0.00000000E+00
  0.00000000E+00  0.00000000E+00  1.10268705E-01  0.00000000E+00  2.99036314E-03
 -6.67700081E-03  0.00000000E+00  0.00000000E+00  0.00000000E+00  0.00000000E+00
  0.00000000E+00  0.00000000E+00 -1.42913288E-01  0.00000000E+00  0.00000000E+00
  0.00000000E+00 -8.51174790E-02  0.00000000E+00  0.00000000E+00  0.00000000E+00
 -1.11046002E+00  0.00000000E+00  2.33240961E-02  2.09601459E-02  0.00000000E+00
  0.00000000E+00  1.36296618E-02 -1.83546715E-01  1.90558571E+00  1.58570971E-02
  1.04249236E-02  2.43470754E-02 -1.36296618E-02  1.83546715E-01 -1.90558571E+00
 -1.58570971E-02 -1.04249236E-02  2.43470754E-02  0.00000000E+00  0.00000000E+00
  0.00000000E+00  0.00000000E+00  0.00000000E+00 -3.92268562E-03  0.00000000E+00
  0.00000000E+00  0.00000000E+00  0.00000000E+00  0.00000000E+00  7.04269904E-03
  9.37919906E-03  1.55988662E-02 -2.64433105E-02 -1.45089509E-02  0.00000000E+00
 -3.55461625E-02 -3.01284213E-02 -2.38920040E-02  0.00000000E+00 -2.29093066E-01
 -1.25488731E-01 -4.92808893E-02  0.00000000E+00 -7.58312041E-04  0.00000000E+00
  0.00000000E+00 -6.45290014E-05  6.49479635E-03 -4.06831574E-03 -6.87506451E-03
  1.38188083E-01 -1.06171438E-02  0.00000000E+00  1.47254399E-02  8.14368746E-02
 -2.08234810E-02  0.00000000E+00  6.34624992E-02  1.10074788E+00 -8.77438507E-02
  0.00000000E+00 -2.07845349E-02  0.00000000E+00  0.00000000E+00  2.04432157E-02
 -1.66522422E-02 -1.22868533E-02  1.04001983E-01 -1.09626370E+00 -3.73785173E-03
 -8.76012116E-03 -1.57212101E-02 -1.22868533E-02  1.04001983E-01 -1.09626370E+00
 -3.73785173E-03 -8.76012116E-03  1.57212101E-02  1.92324054E-02 -1.50995587E-01
  2.13297059E+00 -3.33958126E-02  6.59272430E-03  0.00000000E+00  2.15831414E-03
 -4.89630612E-02  2.87959899E-01  3.26552712E-03 -1.12937061E-03  0.00000000E+00
 -2.43626565E-02 -3.99458313E-02 -3.60226705E-02  1.31000961E-01  0.00000000E+00
  6.78736941E-02 -3.22524689E-02  1.54136699E-01  0.00000000E+00  1.01387976E+00
 -1.43627825E-01  7.98377434E-01  0.00000000E+00 -4.27910973E-03  0.00000000E+00
  0.00000000E+00 -1.16350885E-03  2.21175819E-03  1.49228396E-02  2.46605015E-02
  8.19048853E-03  9.94924518E-02  0.00000000E+00 -2.16549744E-02  7.64174749E-03
  9.97031848E-02  0.00000000E+00 -6.11472520E-01  1.19842447E-01  1.80247256E+00
  0.00000000E+00 -8.74213031E-03  0.00000000E+00  0.00000000E+00 -1.54838485E-02
  3.26542627E-03 -1.24590360E-02 -1.95015021E-01 -3.47784959E-01  1.37891194E-03
  6.40277213E-03 -1.17374365E-03 -1.24590360E-02 -1.95015021E-01 -3.47784959E-01
  1.37891194E-03  6.40277213E-03  1.17374365E-03 -1.52917542E-02 -1.76792535E-01
  1.82561791E-01 -1.46131686E-03  7.97471915E-04  0.00000000E+00  3.03615413E-03
 -8.88828411E-02  8.97186384E-01  1.66605564E-02 -6.02254359E-03  0.00000000E+00
 -4.84675969E-03 -8.82823631E-03 -4.98327399E-02 -2.67650028E-02  0.00000000E+00
  5.15574231E-02 -5.20059904E-02 -4.66826219E-02  0.00000000E+00 -1.26832876E-01
 -5.97822284E-01  1.35097905E-02  0.00000000E+00  3.56012043E-03  0.00000000E+00
  0.00000000E+00 -7.80465565E-03  1.10923050E-02  1.68914259E-03  4.05787582E-03
  8.46832932E-03  2.16047819E-03  0.00000000E+00 -4.32851826E-02  6.99122068E-02
  1.12571719E-02  0.00000000E+00  1.21187592E-01  1.88425557E+00 -1.19581550E-02
  0.00000000E+00  2.30186214E-02  0.00000000E+00  0.00000000E+00 -1.63430420E-02
  3.29124846E-02 -2.54224152E-02 -7.07584228E-01  4.51703135E-02  2.92204132E-02
  2.55872663E-02  2.30090589E-02 -2.54224152E-02 -7.07584228E-01  4.51703135E-02
  2.92204132E-02  2.55872663E-02 -2.30090589E-02  5.10391641E-02  1.40502573E+00
 -7.90594566E-03  7.00270696E-02 -4.05910450E-02  0.00000000E+00 -2.47137457E-02
  4.56875755E-01 -4.63810304E-01 -3.64291899E-02  4.13756488E-02  0.00000000E+00
  0.00000000E+00  0.00000000E+00  0.00000000E+00  0.00000000E+00 -7.40918202E-02
  0.00000000E+00  0.00000000E+00  0.00000000E+00 -9.07368800E-02  0.00000000E+00
  0.00000000E+00  0.00000000E+00 -3.78726662E-01  0.00000000E+00 -8.90286546E-03
  7.82862898E-03  0.00000000E+00  0.00000000E+00  0.00000000E+00  0.00000000E+00
  0.00000000E+00  0.00000000E+00  3.11107900E-02  0.00000000E+00  0.00000000E+00
  0.00000000E+00  8.70127511E-02  0.00000000E+00  0.00000000E+00  0.00000000E+00
  1.80359367E+00  0.00000000E+00  1.17676100E-02  4.69258310E-02  0.00000000E+00
  0.00000000E+00 -4.91112941E-02 -1.20801663E+00 -2.47673829E-02  1.14315897E-02
  2.72940104E-02  5.27923661E-02  4.91112941E-02  1.20801663E+00  2.47673829E-02
 -1.14315897E-02 -2.72940104E-02  5.27923661E-02  0.00000000E+00  0.00000000E+00
  0.00000000E+00  0.00000000E+00  0.00000000E+00  2.57783088E-02  0.00000000E+00
  0.00000000E+00  0.00000000E+00  0.00000000E+00  0.00000000E+00 -6.05985512E-03
  1.40131820E-02  2.31057095E-02 -1.03406524E-01  5.70095723E-02  0.00000000E+00
 -1.37547210E-02 -1.74925672E-01  8.14781658E-02  0.00000000E+00 -9.60685761E-01
 -9.77189400E-01  2.50174058E-01  0.00000000E+00  3.67635597E-03  0.00000000E+00
  0.00000000E+00  1.44619605E-02 -1.00670701E-02  1.75534697E-02  3.54723269E-02
 -5.01596349E-02  6.40047956E-02  0.00000000E+00 -2.52116025E-01 -1.60084284E-01
  1.91117817E-01  0.00000000E+00  5.51500542E-01  4.16318841E-01 -3.85759910E-01
  0.00000000E+00 -5.72545151E-03  0.00000000E+00  0.00000000E+00 -1.64755680E-02
  3.18944007E-02  2.84016227E-02  5.74524105E-02 -1.40958041E-01 -4.69324334E-03
  3.98448345E-02  1.06821693E-02  2.84016227E-02  5.74524105E-02 -1.40958041E-01
 -4.69324334E-03  3.98448345E-02 -1.06821693E-02 -4.10288777E-02 -2.38941451E-01
  3.13540529E-01 -6.48854844E-03 -2.81441921E-02  0.00000000E+00  1.02584263E-01
  2.06469755E+00 -1.03597783E+00 -3.27211493E-02  4.03547517E-02  0.00000000E+00
  3.88696457E-02  6.99804896E-02 -3.68282519E-02 -1.30267128E-01  0.00000000E+00
 -2.65457673E-01 -6.88060296E-02 -1.62790186E-01  0.00000000E+00 -1.34961982E-01
 -1.88227933E-01 -4.12020479E-01  0.00000000E+00 -2.52120175E-02  0.00000000E+00
  0.00000000E+00 -3.01204474E-02 -1.21936248E-02 -6.32982278E-02 -1.23332608E-01
  7.58861998E-03 -2.12846234E-01  0.00000000E+00  4.90180344E-01  2.79519133E-02
 -6.87683136E-01  0.00000000E+00  1.27513048E+00 -1.79507076E-02  8.73925514E-01
  0.00000000E+00  2.56526584E-02  0.00000000E+00  0.00000000E+00  5.31668199E-02
  1.21155324E-02 -2.60013071E-02 -6.89301936E-01  4.58741653E-02  4.05980439E-03
 -2.43409865E-02  3.85888928E-03 -2.60013071E-02 -6.89301936E-01  4.58741653E-02
  4.05980439E-03 -2.43409865E-02 -3.85888928E-03 -3.33103072E-02 -7.01897508E-01
  3.22196045E-03 -3.12360206E-03 -4.18889852E-02  0.00000000E+00  1.74318135E-02
  6.22045280E-01 -4.19834467E-01  8.91524578E-03 -5.05116676E-02  0.00000000E+00
  8.19965823E-03  1.38002861E-02  2.57107521E-02  1.00300905E-02  0.00000000E+00
 -3.09963493E-02  5.87037705E-02  3.86898724E-02  0.00000000E+00 -6.44060814E-01
  9.40541666E-02 -3.55486479E-01  0.00000000E+00  1.59054294E-02  0.00000000E+00
  0.00000000E+00  1.56990997E-02  1.21184556E-02 -3.32357202E-02 -6.11371565E-02
  3.11696018E-02  1.61036558E-01  0.00000000E+00  3.10723978E-02  1.37165300E-01
  6.50158494E-01  0.00000000E+00  2.13575522E+00 -3.38729406E-01 -6.97571382E-01
  0.00000000E+00 -1.90083104E-02  0.00000000E+00  0.00000000E+00 -1.11923942E-02
 -3.59156032E-02 -5.38993787E-02 -1.16887699E+00  4.50824051E-01 -8.51836684E-03
  2.58576656E-02 -1.48934652E-02 -5.38993787E-02 -1.16887699E+00  4.50824051E-01
 -8.51836684E-03  2.58576656E-02  1.48934652E-02 -2.57202175E-02 -1.03425113E+00
 -1.49412282E-01 -1.63498802E-03  4.59641521E-02  0.00000000E+00 -7.53644898E-03
 -1.87952199E-01 -2.67682817E-01  1.50201679E-02  6.70536559E-02  0.00000000E+00
  0.00000000E+00  0.00000000E+00  0.00000000E+00  0.00000000E+00  6.30952369E-04
  0.00000000E+00  0.00000000E+00  0.00000000E+00  1.45949109E-03  0.00000000E+00
  0.00000000E+00  0.00000000E+00 -1.56652937E-01  0.00000000E+00 -2.05412229E-03
 -2.02026658E-02  0.00000000E+00  0.00000000E+00  0.00000000E+00  0.00000000E+00
  0.00000000E+00  0.00000000E+00 -2.55219667E-01  0.00000000E+00  0.00000000E+00
  0.00000000E+00 -1.03250480E+00  0.00000000E+00  0.00000000E+00  0.00000000E+00
  1.86492967E+00  0.00000000E+00  4.33160792E-02  6.99365477E-02  0.00000000E+00
  0.00000000E+00  5.15042624E-02  3.97185349E-01 -1.48870436E+00  3.65604930E-02
  3.99549202E-02  2.92408709E-02 -5.15042624E-02 -3.97185349E-01  1.48870436E+00
 -3.65604930E-02 -3.99549202E-02  2.92408709E-02  0.00000000E+00  0.00000000E+00
  0.00000000E+00  0.00000000E+00  0.00000000E+00 -3.81765803E-02  0.00000000E+00
  0.00000000E+00  0.00000000E+00  0.00000000E+00  0.00000000E+00  1.51699153E-02
 -5.14274660E-03 -9.53705724E-03  5.19652380E-02 -2.31538760E-02  0.00000000E+00
  4.01953602E-02  1.14197896E-01 -4.16405611E-02  0.00000000E+00  8.77896448E-02
 -8.69584405E-03 -7.08369326E-02  0.00000000E+00  3.94694423E-03  0.00000000E+00
  0.00000000E+00 -7.69608116E-03 -9.58013775E-03 -1.61026130E-02 -3.17766992E-02
 -2.50238705E-01  4.53750769E-03  0.00000000E+00  1.66985502E-01 -1.00063886E+00
  3.74618731E-02  0.00000000E+00 -4.25439633E-02  1.73073308E+00  2.42885633E-03
  0.00000000E+00  4.83922590E-02  0.00000000E+00  0.00000000E+00 -3.54035740E-02
  3.62449683E-02  1.44004921E-02  7.09407904E-02 -7.17441638E-01 -2.52646667E-02
  1.14011481E-02  2.76867379E-02  1.44004921E-02  7.09407904E-02 -7.17441638E-01
 -2.52646667E-02  1.14011481E-02 -2.76867379E-02 -6.32252635E-02 -6.34392419E-01
  1.75133086E+00  6.66201167E-02 -3.34559009E-02  0.00000000E+00 -1.48188260E-02
 -5.03156798E-01  1.55651933E-01 -2.35875402E-02  3.77183105E-03  0.00000000E+00
  1.49331359E-02  2.64586954E-02  3.30097536E-02  1.16442513E-02  0.00000000E+00
 -7.64733401E-02  8.43093402E-02  7.87183248E-02  0.00000000E+00 -7.32895493E-01
 -5.91723934E-02 -6.83898279E-01  0.00000000E+00  2.03440956E-02  0.00000000E+00
  0.00000000E+00  1.48292614E-02  1.27321975E-02  9.71503269E-02  2.07952036E-01
 -1.98934116E-02 -7.55603679E-02  0.00000000E+00 -1.84662642E+00 -5.82604660E-02
 -2.00600503E-01  0.00000000E+00  5.63609105E+00  6.35153234E-03  4.42094964E-01
  0.00000000E+00  3.38777874E-02  0.00000000E+00  0.00000000E+00  5.37722711E-02
 -3.09588651E-02  2.12338882E-02 -6.68817971E-01 -9.10836138E-01  6.56131519E-02
  5.65712596E-02  1.40642924E-01  2.12338882E-02 -6.68817971E-01 -9.10836138E-01
  6.56131519E-02  5.65712596E-02 -1.40642924E-01  2.65112734E-02 -7.54954300E-01
 -8.55690070E-01 -1.54489865E-01  4.53977188E-02  0.00000000E+00 -2.25283518E-02
 -1.15464001E-01 -8.98787258E-02  2.94847365E-03  1.06650429E-01  0.00000000E+00
 -1.70839969E-02 -3.01519644E-02 -1.80738554E-01 -9.29195373E-02  0.00000000E+00
  5.62888490E-02 -5.81104055E-01 -3.88258079E-01  0.00000000E+00  7.15881333E-01
  1.32637297E+00  7.25719179E-01  0.00000000E+00  5.23656747E-03  0.00000000E+00
  0.00000000E+00  1.36307458E-02 -1.35228503E-02  9.74294666E-03  2.80224709E-02
  4.88184924E-03 -1.99267565E-02  0.00000000E+00 -2.94544380E-01 -1.71640696E-01
  2.52855291E-01  0.00000000E+00  6.98984102E-02 -2.22073072E-01  1.93605963E-01
  0.00000000E+00  1.33451970E-01  0.00000000E+00  0.00000000E+00  9.07869317E-02
 -6.39297689E-02 -1.07037198E-02 -4.19394489E-02 -7.72938838E-02 -5.36778294E-02
 -1.06151573E-01  8.87335873E-02 -1.07037198E-02 -4.19394489E-02 -7.72938838E-02
 -5.36778294E-02 -1.06151573E-01 -8.87335873E-02  1.23998386E-03 -2.84676527E-01
  9.03415349E-02 -2.54050009E-02  1.54280669E-01  0.00000000E+00 -3.15025527E-02
 -6.55956604E-01  2.79828511E-02  1.80671712E-01 -6.96205153E-02  0.00000000E+00
  0.00000000E+00  0.00000000E+00  0.00000000E+00  0.00000000E+00 -2.21109605E-01
  0.00000000E+00  0.00000000E+00  0.00000000E+00 -7.92144317E-01  0.00000000E+00
  0.00000000E+00  0.00000000E+00  1.20138659E+00  0.00000000E+00  1.71260862E-03
 -1.19067290E-02  0.00000000E+00  0.00000000E+00  0.00000000E+00  0.00000000E+00
  0.00000000E+00  0.00000000E+00  2.82466107E-02  0.00000000E+00  0.00000000E+00
  0.00000000E+00 -5.83274545E-02  0.00000000E+00  0.00000000E+00  0.00000000E+00
 -4.92643120E-01  0.00000000E+00  9.78172505E-02 -4.31237051E-02  0.00000000E+00
  0.00000000E+00  2.02453215E-03  1.53584234E-01  5.44136584E-02  7.00069566E-02
 -1.39280553E-01 -1.50863757E-02 -2.02453215E-03 -1.53584234E-01 -5.44136584E-02
 -7.00069566E-02  1.39280553E-01 -1.50863757E-02  0.00000000E+00  0.00000000E+00
  0.00000000E+00  0.00000000E+00  0.00000000E+00 -1.14890643E-01  0.00000000E+00
  0.00000000E+00  0.00000000E+00  0.00000000E+00  0.00000000E+00  2.12750737E-02
 -2.95670981E-02 -5.60074384E-02  1.04978388E-01 -1.76145468E-01  0.00000000E+00
  3.00392909E-01  2.65705030E-01 -6.51593322E-01  0.00000000E+00 -1.43744901E-01
 -8.32260107E-01  1.68894817E+00  0.00000000E+00  1.25114050E-02  0.00000000E+00
  0.00000000E+00 -9.43905870E-03  2.71239684E-03 -9.32630931E-04  8.10789848E-03
  1.67956248E-02 -6.57329328E-02  0.00000000E+00 -1.56082706E-01  1.77006827E-01
  1.64419454E-01  0.00000000E+00 -6.83443228E-01 -2.00305404E-01  7.91906619E-01
  0.00000000E+00  7.60874390E-02  0.00000000E+00  0.00000000E+00  1.69699887E-01
  8.63378341E-02  1.27560934E-02 -3.94932613E-02 -8.71669155E-02  4.45358438E-02
  1.35413888E-02 -2.67771279E-03  1.27560934E-02 -3.94932613E-02 -8.71669155E-02
  4.45358438E-02  1.35413888E-02  2.67771279E-03 -3.14718435E-02 -2.36172255E-02
 -1.69383727E-01 -3.72306939E-02 -1.79301019E-01  0.00000000E+00  8.49617535E-03
  3.47083824E-01  8.87796920E-01 -2.43610414E-01  4.56579946E-02  0.00000000E+00
  0.00000000E+00  0.00000000E+00  0.00000000E+00  0.00000000E+00 -5.76895620E-02
  0.00000000E+00  0.00000000E+00  0.00000000E+00 -2.84986515E-01  0.00000000E+00
  0.00000000E+00  0.00000000E+00  6.36445852E-01  0.00000000E+00  1.86610534E-04
 -7.59626336E-02  0.00000000E+00  0.00000000E+00  0.00000000E+00  0.00000000E+00
  0.00000000E+00  0.00000000E+00  2.15640112E-02  0.00000000E+00  0.00000000E+00
  0.00000000E+00  1.50953088E-02  0.00000000E+00  0.00000000E+00  0.00000000E+00
 -6.34397710E-01  0.00000000E+00 -2.75288635E-01  4.59319746E-01  0.00000000E+00
  0.00000000E+00  2.04804796E-02  1.40482381E-01  1.82562578E-01 -1.87658053E-01
  2.80282554E-01 -3.97101671E-02 -2.04804796E-02 -1.40482381E-01 -1.82562578E-01
  1.87658053E-01 -2.80282554E-01 -3.97101671E-02  0.00000000E+00  0.00000000E+00
  0.00000000E+00  0.00000000E+00  0.00000000E+00  2.45449217E-01  0.00000000E+00
  0.00000000E+00  0.00000000E+00  0.00000000E+00  0.00000000E+00  1.63439948E-01
 -1.13823855E-02 -2.29761982E-02 -5.44230817E-02  3.29164828E-02  0.00000000E+00
  1.32068921E-01 -3.12440173E-01  7.50878483E-02  0.00000000E+00 -6.95631562E-02
  1.30976772E+00 -3.21300326E-01  0.00000000E+00  2.04308943E-02  0.00000000E+00
  0.00000000E+00 -1.47124865E-02 -9.61722712E-02  1.55716545E-02  3.58348124E-02
  4.08431755E-03  3.51599859E-02  0.00000000E+00 -3.79680771E-01 -1.70522671E-01
  1.13411723E-01  0.00000000E+00  1.22533175E+00 -4.76193816E-01 -3.20482371E-01
  0.00000000E+00 -1.98985431E-01  0.00000000E+00  0.00000000E+00  6.14986332E-02
  5.03344038E-01 -2.55085206E-02 -1.24055907E-01 -1.91606738E-02  1.74730817E-01
  1.00317624E-01 -1.55821027E-01 -2.55085206E-02 -1.24055907E-01 -1.91606738E-02
  1.74730817E-01  1.00317624E-01  1.55821027E-01 -6.08869146E-03 -4.24026560E-01
 -1.13386477E-01 -1.27500638E-01 -2.50572880E-01  0.00000000E+00  3.66887330E-03
 -8.45653709E-01 -6.25628177E-02 -2.73351168E-02 -3.57092429E-01  0.00000000E+00
  8.22333340E-02  1.78447048E-01 -3.70618679E-02 -3.97520116E-02  0.00000000E+00
 -1.51944926E+00  3.50315920E-02 -1.93126032E-01  0.00000000E+00  3.72170829E+00
  8.46052242E-01  9.72892194E-01  0.00000000E+00  2.15884713E-02  0.00000000E+00
  0.00000000E+00  6.20581199E-02  1.50158800E-02 -6.95707327E-03 -1.47184528E-02
 -3.15882776E-02 -6.30757001E-02  0.00000000E+00  3.33171834E-01 -3.90421809E-02
  4.23254218E-01  0.00000000E+00 -2.68121924E+00 -3.52544367E-01  7.86709815E-01
  0.00000000E+00  2.22755944E-02  0.00000000E+00  0.00000000E+00  3.22756482E-01
  4.80816458E-02  1.70060357E-02  4.07332478E-01  1.15380903E-01  5.02046476E-02
  1.64175161E-01 -3.37409895E-02  1.70060357E-02  4.07332478E-01  1.15380903E-01
  5.02046476E-02  1.64175161E-01  3.37409895E-02  8.29474239E-02  1.03994110E-02
  1.57143709E-01 -9.94226630E-02 -1.87498917E-01  0.00000000E+00  3.64025441E-02
 -1.24719826E+00  2.10980266E-01  4.35831017E-01  2.40719636E-01  0.00000000E+00
  0.00000000E+00  0.00000000E+00  0.00000000E+00  0.00000000E+00  1.48628991E-02
  0.00000000E+00  0.00000000E+00  0.00000000E+00  1.15367080E-01  0.00000000E+00
  0.00000000E+00  0.00000000E+00 -6.93670995E-01  0.00000000E+00  1.34715821E-01
 -2.93828292E-02  0.00000000E+00  0.00000000E+00  0.00000000E+00  0.00000000E+00
  0.00000000E+00  0.00000000E+00  1.71242249E-02  0.00000000E+00  0.00000000E+00
  0.00000000E+00  8.89524563E-02  0.00000000E+00  0.00000000E+00  0.00000000E+00
  6.84896225E-01  0.00000000E+00  3.53689435E-01  1.47158314E-01  0.00000000E+00
  0.00000000E+00  7.53204595E-02 -5.40870620E-01 -7.05004626E-02  5.67993148E-02
 -7.80193546E-02  1.23649361E-02 -7.53204595E-02  5.40870620E-01  7.05004626E-02
 -5.67993148E-02  7.80193546E-02  1.23649361E-02  0.00000000E+00  0.00000000E+00
  0.00000000E+00  0.00000000E+00  0.00000000E+00 -1.35812287E-02  0.00000000E+00
  0.00000000E+00  0.00000000E+00  0.00000000E+00  0.00000000E+00  9.38962206E-01
  0.00000000E+00  0.00000000E+00  0.00000000E+00  0.00000000E+00  2.61164564E-05
  0.00000000E+00  0.00000000E+00  0.00000000E+00 -1.14915124E-03  0.00000000E+00
  0.00000000E+00  0.00000000E+00  1.45143580E-02  0.00000000E+00 -7.59283168E-03
  2.03921968E-03  0.00000000E+00  0.00000000E+00  0.00000000E+00  0.00000000E+00
  0.00000000E+00  0.00000000E+00  1.74109034E-03  0.00000000E+00  0.00000000E+00
  0.00000000E+00 -1.17890245E-02  0.00000000E+00  0.00000000E+00  0.00000000E+00
  7.13303012E-03  0.00000000E+00 -9.93783076E-03 -4.12420476E-03  0.00000000E+00
  0.00000000E+00 -4.34296821E-03  9.70233684E-03 -5.60340634E-03  5.18000486E-01
  4.80146518E-02 -3.11284844E-01  4.34296821E-03 -9.70233684E-03  5.60340634E-03
 -5.18000486E-01 -4.80146518E-02 -3.11284844E-01  0.00000000E+00  0.00000000E+00
  0.00000000E+00  0.00000000E+00  0.00000000E+00  5.88019616E-01  0.00000000E+00
  0.00000000E+00  0.00000000E+00  0.00000000E+00  0.00000000E+00 -3.32833514E-02
  4.43303766E-02  9.82104132E-02  5.06332472E-02  5.29196513E-02  0.00000000E+00
 -9.07440425E-01  2.40397752E-01 -1.43899152E-02  0.00000000E+00  2.48139781E+00
 -1.07397222E-02  1.12216836E+00  0.00000000E+00  4.73499627E-02  0.00000000E+00
  0.00000000E+00  4.68764276E-02 -1.14027487E-01  1.24961900E-02  2.97610276E-02
  9.32243489E-03  4.21244482E-02  0.00000000E+00 -1.22382209E-01 -4.93332391E-02
  4.64963458E-01  0.00000000E+00 -1.34053076E+00  5.49534100E-01  8.62304036E-01
  0.00000000E+00  5.25560939E-01  0.00000000E+00  0.00000000E+00  1.23843509E-01
  2.89623380E-01  8.55334932E-02 -3.53565981E-01  3.64543553E-02  1.56844547E-01
 -2.75810769E-01  5.51434674E-02  8.55334932E-02 -3.53565981E-01  3.64543553E-02
  1.56844547E-01 -2.75810769E-01 -5.51434674E-02 -6.53635716E-02  5.91538018E-01
  7.18114699E-02  4.63305612E-02  2.47463579E-01  0.00000000E+00  1.80227491E-01
 -6.62410845E-01  1.53229893E-01  9.09489848E-03 -6.14384314E-01  0.00000000E+00
 -2.79970568E-03 -7.33174470E-03  8.57837702E-03  1.84500319E-03  0.00000000E+00
  8.75419760E-02  1.76460638E-02  4.39108557E-02  0.00000000E+00 -2.23440342E-01
 -1.01825976E-01 -4.11409743E-01  0.00000000E+00  1.51929108E-03  0.00000000E+00
  0.00000000E+00 -1.50920713E-02 -9.31182235E-03 -2.97887815E-03 -7.08748752E-03
  4.66437551E-02 -1.39500922E-03  0.00000000E+00  4.23042499E-02  1.21260558E-01
 -9.72847807E-02  0.00000000E+00  3.00364944E-01  1.01832969E+00 -1.13639080E-01
  0.00000000E+00  5.31363368E-01  0.00000000E+00  0.00000000E+00 -4.22427895E-01
  3.80292820E-01  1.41721677E-01 -6.79271707E-01  9.48263598E-02 -3.13371942E-01
  1.22777932E-01  4.71568918E-02  1.41721677E-01 -6.79271707E-01  9.48263598E-02
 -3.13371942E-01  1.22777932E-01 -4.71568918E-02 -2.90156534E-01  1.33513787E+00
 -1.60099933E-01 -1.63146539E-01 -2.62486081E-01  0.00000000E+00  3.92356137E-03
 -4.74119322E-02 -1.86482168E-01  7.47878520E-02  1.87222345E-01  0.00000000E+00
  0.00000000E+00  0.00000000E+00  0.00000000E+00  0.00000000E+00 -4.69164486E-02
  0.00000000E+00  0.00000000E+00  0.00000000E+00 -9.33113964E-02  0.00000000E+00
  0.00000000E+00  0.00000000E+00  1.30269622E-01  0.00000000E+00  3.26464515E-02
  3.15565933E-02  0.00000000E+00  0.00000000E+00  0.00000000E+00  0.00000000E+00
  0.00000000E+00  0.00000000E+00 -4.57002731E-02  0.00000000E+00  0.00000000E+00
  0.00000000E+00 -8.04968594E-02  0.00000000E+00  0.00000000E+00  0.00000000E+00
 -1.02585513E+00  0.00000000E+00 -6.01219176E-01 -4.93724311E-01  0.00000000E+00
  0.00000000E+00 -2.54305033E-01  1.15354703E+00 -1.35587935E-01 -3.68592580E-02
 -1.59152325E-01  2.09191827E-01  2.54305033E-01 -1.15354703E+00  1.35587935E-01
  3.68592580E-02  1.59152325E-01  2.09191827E-01  0.00000000E+00  0.00000000E+00
  0.00000000E+00  0.00000000E+00  0.00000000E+00  3.21100600E-01  0.00000000E+00
  0.00000000E+00  0.00000000E+00  0.00000000E+00  0.00000000E+00  3.26268414E-01
 -3.06868019E-02 -6.03593299E-02 -2.13701828E-02  1.25498706E-01  0.00000000E+00
  3.36249421E-01 -5.30105739E-02  3.59614936E-01  0.00000000E+00  1.69336109E-01
  5.84888582E-02 -3.26055883E-01  0.00000000E+00 -3.95947958E-03  0.00000000E+00
  0.00000000E+00  5.24428940E-02  3.84843817E-02  1.03302920E-02  1.53394502E-02
  5.69660856E-04  2.19844387E-01  0.00000000E+00 -5.25545194E-03 -1.43633784E-03
 -1.74541859E-01  0.00000000E+00  5.58146505E-01 -1.69529422E-01  9.15088152E-01
  0.00000000E+00  1.92113199E-01  0.00000000E+00  0.00000000E+00  6.08999354E-01
 -3.19057880E-02  1.33303816E-01 -4.04306691E-01 -4.43581388E-02 -4.01780896E-02
 -3.10145641E-01  4.60029889E-02  1.33303816E-01 -4.04306691E-01 -4.43581388E-02
 -4.01780896E-02 -3.10145641E-01 -4.60029889E-02  1.96450576E-01 -7.07210422E-01
  2.56094414E-02 -5.07861165E-02 -4.61301542E-01  0.00000000E+00  4.51044696E-02
 -6.84951193E-02  1.15913099E-01  5.06833275E-02  2.47920124E-01  0.00000000E+00
  0.00000000E+00  0.00000000E+00  0.00000000E+00  0.00000000E+00 -5.71035105E-02
  0.00000000E+00  0.00000000E+00  0.00000000E+00 -1.28705015E-02  0.00000000E+00
  0.00000000E+00  0.00000000E+00 -2.99902254E-01  0.00000000E+00  3.21622574E-02
  1.41459003E-01  0.00000000E+00  0.00000000E+00  0.00000000E+00  0.00000000E+00
  0.00000000E+00  0.00000000E+00  7.99052377E-02  0.00000000E+00  0.00000000E+00
  0.00000000E+00 -1.40407122E-01  0.00000000E+00  0.00000000E+00  0.00000000E+00
  6.18501825E-01  0.00000000E+00 -1.53595874E-01 -6.03088513E-01  0.00000000E+00
  0.00000000E+00 -1.78886003E-01  3.32175375E-01 -4.31797263E-01  1.03723658E-02
  5.13861947E-01 -3.42670838E-01  1.78886003E-01 -3.32175375E-01  4.31797263E-01
 -1.03723658E-02 -5.13861947E-01 -3.42670838E-01  0.00000000E+00  0.00000000E+00
  0.00000000E+00  0.00000000E+00  0.00000000E+00 -4.50810825E-01  0.00000000E+00
  0.00000000E+00  0.00000000E+00  0.00000000E+00  0.00000000E+00  2.27529284E-01
  1.74661620E-02  4.14449863E-02  1.98280914E-02  1.65973321E-02  0.00000000E+00
 -4.13140996E-01  7.55527351E-02 -5.08594189E-02  0.00000000E+00  8.66885674E-01
 -3.90686728E-01  7.96687834E-01  0.00000000E+00  6.08030477E-02  0.00000000E+00
  0.00000000E+00 -4.06540417E-02  4.03800303E-02  9.79401122E-03  2.30893675E-02
  1.16239998E-01  7.67058269E-02  0.00000000E+00 -1.42810829E-01 -2.75317699E-01
  2.35595223E-01  0.00000000E+00 -7.75566969E-01  8.52500339E-01  3.30479014E-01
  0.00000000E+00 -1.14502837E-01  0.00000000E+00  0.00000000E+00  1.41145085E-01
 -5.10807124E-01 -1.51748258E-01  2.87112646E-01 -2.62366447E-01 -3.67209780E-01
  1.01607678E-01  7.83716473E-02 -1.51748258E-01  2.87112646E-01 -2.62366447E-01
 -3.67209780E-01  1.01607678E-01 -7.83716473E-02  2.00781710E-01 -2.21683338E-01
  6.04286375E-01 -2.93790077E-01 -4.77669326E-01  0.00000000E+00 -2.99776730E-01
  5.10229495E-01 -1.31964513E-01 -1.94797354E-01 -6.44940992E-01  0.00000000E+00
 -1.18932820E-02 -2.30464305E-02  8.38893837E-02 -3.85229573E-02  0.00000000E+00
  7.96593315E-02  2.95203618E-01 -1.86135844E-01  0.00000000E+00  4.50878456E-01
 -5.74921359E-02  9.96617721E-02  0.00000000E+00  9.14204515E-02  0.00000000E+00
  0.00000000E+00 -9.82464368E-02  1.29950926E-01 -3.06852508E-03 -2.84564852E-03
 -1.58473177E-01  1.31315769E-01  0.00000000E+00 -5.34950707E-03  4.19051971E-01
  5.31001853E-02  0.00000000E+00 -2.17388084E-01 -3.45954868E-01  3.13646412E-01
  0.00000000E+00  2.17711086E-01  0.00000000E+00  0.00000000E+00 -5.08775115E-01
 -1.22640819E-01 -1.40093670E-02 -6.63452702E-02  1.32104098E-01  4.25804814E-01
 -2.08120966E-01  3.95150495E-02 -1.40093670E-02 -6.63452702E-02  1.32104098E-01
  4.25804814E-01 -2.08120966E-01 -3.95150495E-02 -3.00373171E-01  7.06368237E-01
 -4.39050123E-01  1.16644074E-01 -4.58645758E-01  0.00000000E+00 -6.32933999E-01
  6.12378380E-01 -3.50802922E-01  5.99380855E-01 -1.04844999E-01  0.00000000E+00
 -3.44573608E-02 -7.10962387E-02  6.70819692E-02  2.05315843E-02  0.00000000E+00
  4.60335626E-01  1.33469609E-01  1.43945582E-01  0.00000000E+00 -6.56679303E-01
 -9.75969586E-02 -1.82491553E-01  0.00000000E+00  1.15334967E-01  0.00000000E+00
  0.00000000E+00 -8.23160203E-02  6.15879417E-02  1.84093707E-02  2.80473768E-02
 -5.12442047E-02 -1.15624103E-01  0.00000000E+00 -1.11087273E-01  1.14726652E-01
 -6.70752205E-02  0.00000000E+00  5.36205292E-01 -4.41037445E-02 -5.32899347E-01
  0.00000000E+00  4.93596568E-01  0.00000000E+00  0.00000000E+00  4.37895207E-01
 -1.93270931E-02  3.14055061E-01 -5.49089153E-01  2.57592599E-01 -4.97149453E-03
  4.66777178E-01 -2.61223619E-01  3.14055061E-01 -5.49089153E-01  2.57592599E-01
 -4.97149453E-03  4.66777178E-01  2.61223619E-01  2.46788670E-01 -3.17218894E-01
  4.96172993E-02  2.42756596E-01  3.58558627E-01  0.00000000E+00 -5.31646586E-01
  7.13577770E-01 -4.57373063E-01  2.15427928E-01 -1.90982632E-01  0.00000000E+00
  0.00000000E+00  0.00000000E+00  0.00000000E+00  0.00000000E+00 -6.60451688E-02
  0.00000000E+00  0.00000000E+00  0.00000000E+00 -6.01537290E-02  0.00000000E+00
  0.00000000E+00  0.00000000E+00  8.83241668E-02  0.00000000E+00  5.44324303E-02
  1.85375883E-01  0.00000000E+00  0.00000000E+00  0.00000000E+00  0.00000000E+00
  0.00000000E+00  0.00000000E+00 -2.87883092E-01  0.00000000E+00  0.00000000E+00
  0.00000000E+00  7.20136657E-01  0.00000000E+00  0.00000000E+00  0.00000000E+00
 -4.81019848E-01  0.00000000E+00  9.03793817E-01 -3.77727093E-01  0.00000000E+00
  0.00000000E+00  3.57065390E-01 -8.20740496E-01  5.11964213E-01 -2.11106061E-01
  4.22213727E-01  3.62096193E-01 -3.57065390E-01  8.20740496E-01 -5.11964213E-01
  2.11106061E-01 -4.22213727E-01  3.62096193E-01  0.00000000E+00  0.00000000E+00
  0.00000000E+00  0.00000000E+00  0.00000000E+00  6.87800131E-01  0.00000000E+00
  0.00000000E+00  0.00000000E+00  0.00000000E+00  0.00000000E+00 -4.35186311E-02
  9.73408667E-03  1.96980503E-02 -1.53725581E-01  3.28470060E-02  0.00000000E+00
 -6.26022398E-02 -3.01847363E-01  1.16732108E-01  0.00000000E+00 -4.68970347E-01
 -1.12652923E-01  2.62099427E-02  0.00000000E+00 -7.46837566E-02  0.00000000E+00
  0.00000000E+00  7.30491330E-02  9.72476897E-02  2.18489718E-03  7.22703390E-03
 -1.94051228E-01 -3.37389629E-02  0.00000000E+00 -6.87787013E-02  5.16120915E-01
 -1.76961283E-02  0.00000000E+00  6.55834901E-02 -2.15704686E-01 -7.51507342E-02
  0.00000000E+00  6.30112244E-01  0.00000000E+00  0.00000000E+00 -2.86627913E-01
 -6.14936977E-01  1.60564941E-01 -3.41212024E-01  1.70674683E-01  3.86486043E-01
  2.96937241E-01 -2.09622001E-01  1.60564941E-01 -3.41212024E-01  1.70674683E-01
  3.86486043E-01  2.96937241E-01  2.09622001E-01 -3.28584723E-01  7.57363536E-01
 -3.85258235E-01  2.13282148E-01 -4.63641189E-01  0.00000000E+00  4.29441980E-01
 -8.94553895E-02  2.52786507E-01 -5.70720105E-01  1.99877981E-03  0.00000000E+00
  2.15648391E-02  5.16753347E-02  2.75516854E-02  2.30333225E-02  0.00000000E+00
 -3.99961355E-01 -4.05173386E-01  1.94166288E-01  0.00000000E+00 -4.25110380E-01
 -4.94541700E-01  9.38379645E-02  0.00000000E+00  2.69353318E-02  0.00000000E+00
  0.00000000E+00 -7.53307084E-02  3.47961904E-02 -1.95930525E-02 -4.21389062E-02
 -1.50974236E-01  2.50039275E-01  0.00000000E+00  2.94652218E-01  1.01130300E+00
 -1.44401542E-01  0.00000000E+00 -3.25659299E-01  1.97930537E-01  8.48260339E-02
  0.00000000E+00  1.51300080E-01  0.00000000E+00  0.00000000E+00  2.07825606E-01
  3.60857528E-01  4.76758651E-02 -4.65237320E-01  1.86192518E-01 -2.36409988E-02
  1.69673244E-01  4.69924674E-01  4.76758651E-02 -4.65237320E-01  1.86192518E-01
 -2.36409988E-02  1.69673244E-01 -4.69924674E-01 -8.48472369E-01  1.75983697E+00
 -5.06304644E-01  5.50952181E-01  6.05799877E-02  0.00000000E+00 -7.46045124E-01
  1.84200331E+00 -4.27187275E-01 -8.31843921E-01  2.29620058E-01  0.00000000E+00
 -2.45517265E-02 -5.31903102E-02  8.74065859E-03  3.66815180E-02  0.00000000E+00
  3.54256259E-01  2.04074200E-01  6.66226093E-02  0.00000000E+00  3.13230429E-01
  1.89979190E-01 -8.50331870E-02  0.00000000E+00  5.29910679E-02  0.00000000E+00
  0.00000000E+00  9.65449437E-02 -1.39461999E-02 -4.24004350E-02 -7.78636160E-02
  8.26554223E-02  2.98670554E-01  0.00000000E+00  3.92694819E-01 -3.58685375E-01
 -2.50434295E-01  0.00000000E+00 -3.38851232E-01 -5.57451797E-02  1.07596965E-02
  0.00000000E+00  3.75769797E-01  0.00000000E+00  0.00000000E+00  4.99626665E-01
 -6.16836706E-02 -7.95032196E-01  9.60697252E-01 -3.39015948E-01  1.13065278E-01
  2.95023989E-01 -1.78534876E-02 -7.95032196E-01  9.60697252E-01 -3.39015948E-01
  1.13065278E-01  2.95023989E-01  1.78534876E-02 -3.85915598E-01  1.08801078E-01
  5.44874911E-04 -3.54328978E-01  2.56256185E-01  0.00000000E+00  2.75108320E-01
 -7.81142516E-01  2.64040614E-01  4.17474531E-01 -7.63160850E-02  0.00000000E+00
  0.00000000E+00  0.00000000E+00  0.00000000E+00  0.00000000E+00 -6.24330346E-03
  0.00000000E+00  0.00000000E+00  0.00000000E+00 -3.02093554E-02  0.00000000E+00
  0.00000000E+00  0.00000000E+00  2.54018310E-01  0.00000000E+00  3.58960130E-02
 -6.35737229E-02  0.00000000E+00  0.00000000E+00  0.00000000E+00  0.00000000E+00
  0.00000000E+00  0.00000000E+00  8.33963168E-03  0.00000000E+00  0.00000000E+00
  0.00000000E+00 -1.55673793E+00  0.00000000E+00  0.00000000E+00  0.00000000E+00
 -7.33135836E-01  0.00000000E+00 -8.24816282E-02 -5.88707211E-01  0.00000000E+00
  0.00000000E+00 -7.01450137E-01  2.13499568E+00 -3.33421889E-01 -7.00795834E-01
 -3.59231290E-01 -7.57832265E-01  7.01450137E-01 -2.13499568E+00  3.33421889E-01
  7.00795834E-01  3.59231290E-01 -7.57832265E-01  0.00000000E+00  0.00000000E+00
  0.00000000E+00  0.00000000E+00  0.00000000E+00  5.01059035E-01  0.00000000E+00
  0.00000000E+00  0.00000000E+00  0.00000000E+00  0.00000000E+00 -7.48372720E-02
 -8.85421276E-03 -2.15836594E-02 -1.42565611E-02  1.20574476E-02  0.00000000E+00
  1.43201895E-01  2.27623858E-01 -7.48847086E-02  0.00000000E+00  5.73128221E-01
  2.75851844E-01 -8.74527711E-02  0.00000000E+00  5.33239639E-02  0.00000000E+00
  0.00000000E+00  4.21677974E-03 -9.67775849E-02  1.00685120E-02  2.77597454E-02
  5.78918244E-01 -5.40255301E-02  0.00000000E+00 -2.38300037E-01  9.41640779E-01
  1.34406135E-01  0.00000000E+00 -6.98318746E-02  9.86147098E-01 -5.53165984E-02
  0.00000000E+00  5.80652623E-01  0.00000000E+00  0.00000000E+00 -4.64970074E-01
  5.12351056E-01  6.93124543E-02 -8.12088132E-01 -8.20297025E-02  1.23790768E-01
  2.66465718E-01  5.42045491E-01  6.93124543E-02 -8.12088132E-01 -8.20297025E-02
  1.23790768E-01  2.66465718E-01 -5.42045491E-01 -9.78404074E-02  1.81500975E+00
  2.27481659E-01  1.38006195E+00 -4.50819637E-01  0.00000000E+00  4.56588579E-01
 -1.26586027E+00  1.42284028E-01  4.72143321E-01 -2.03390078E-01  0.00000000E+00
  0.00000000E+00  0.00000000E+00  0.00000000E+00  0.00000000E+00  2.02112639E-02
  0.00000000E+00  0.00000000E+00  0.00000000E+00  1.03394569E-02  0.00000000E+00
  0.00000000E+00  0.00000000E+00 -1.24496756E-02  0.00000000E+00  5.75694805E-02
 -1.55147556E-01  0.00000000E+00  0.00000000E+00  0.00000000E+00  0.00000000E+00
  0.00000000E+00  0.00000000E+00  8.38856110E-01  0.00000000E+00  0.00000000E+00
  0.00000000E+00 -7.74943449E-03  0.00000000E+00  0.00000000E+00  0.00000000E+00
  7.05425073E-01  0.00000000E+00  8.63152598E-01  3.85478412E-01  0.00000000E+00
  0.00000000E+00 -4.27435530E-01 -2.99030911E-01 -4.66543235E-01  2.20609291E-01
  3.39156652E-01  6.30374211E-01  4.27435530E-01  2.99030911E-01  4.66543235E-01
 -2.20609291E-01 -3.39156652E-01  6.30374211E-01  0.00000000E+00  0.00000000E+00
  0.00000000E+00  0.00000000E+00  0.00000000E+00  2.07516993E-01  0.00000000E+00
  0.00000000E+00  0.00000000E+00  0.00000000E+00  0.00000000E+00 -9.88230612E-02
  1.52014575E-02  3.54374220E-02  5.31446179E-03 -8.55061156E-03  0.00000000E+00
 -2.02701475E-01 -3.86474298E-01  1.37197551E-01  0.00000000E+00 -1.06342525E+00
 -4.37223895E-01 -1.49845495E-01  0.00000000E+00  1.58333708E-02  0.00000000E+00
  0.00000000E+00 -1.04958842E-01 -2.83426489E-02 -1.64538744E-02 -4.82242063E-02
  6.13503415E-01  1.11392452E-01  0.00000000E+00  3.89054505E-01 -7.47639194E-01
 -8.49248256E-02  0.00000000E+00  6.68090893E-01  1.06113529E-02  6.59140539E-02
  0.00000000E+00  4.64985859E-01  0.00000000E+00  0.00000000E+00 -2.70016212E-01
  6.15662136E-03 -2.40458378E-01  1.08856875E-01 -2.22085483E-01  3.74881119E-01
  2.64304354E-02 -1.02403770E-02 -2.40458378E-01  1.08856875E-01 -2.22085483E-01
  3.74881119E-01  2.64304354E-02  1.02403770E-02  7.83495626E-01 -1.28813068E+00
  4.19694983E-01 -1.72870099E-01  2.31923367E-02  0.00000000E+00 -6.23689465E-01
  1.79135626E+00 -3.33220172E-01 -7.55040630E-01  4.48026389E-01  0.00000000E+00
 -1.56919277E-02 -3.75424246E-02 -1.89694661E-02 -1.93805484E-02  0.00000000E+00
  3.66106624E-01  1.00985154E-01  3.95477294E-02  0.00000000E+00 -7.42401909E-01
  1.21050379E-01 -4.20490575E-01  0.00000000E+00 -4.84054811E-02  0.00000000E+00
  0.00000000E+00 -7.93704792E-02 -6.31251265E-02 -6.82464134E-02 -2.01424270E-01
 -8.95266005E-02  3.01347188E-01  0.00000000E+00  1.36098538E+00  1.03015376E-01
  5.17227280E-01  0.00000000E+00  3.70199019E+00  1.96376054E-02  2.53353456E-01
  0.00000000E+00  1.65071418E-01  0.00000000E+00  0.00000000E+00  3.30493294E-01
  2.80648355E-02  5.51434768E-01 -2.20282613E+00 -8.81538181E-02  4.19493291E-01
  3.90902675E-01  8.59775721E-01  5.51434768E-01 -2.20282613E+00 -8.81538181E-02
  4.19493291E-01  3.90902675E-01 -8.59775721E-01  3.58001206E-01 -1.83871747E+00
 -1.94508910E-01 -9.13539572E-01  2.03251687E-01  0.00000000E+00  2.73060339E-01
 -5.61766386E-01  1.70677310E-02  1.74332593E-01 -1.28536564E-01  0.00000000E+00
 -1.99547767E-02 -3.86604141E-02 -5.58528437E-03  8.35639430E-02  0.00000000E+00
  2.80162434E-01 -8.11400539E-02  2.40438595E-01  0.00000000E+00 -6.06372935E-01
 -1.36583816E-01 -2.39298105E-01  0.00000000E+00  4.89088959E-01  0.00000000E+00
  0.00000000E+00  2.72836753E-01 -6.32848951E-02 -5.53643969E-02 -1.15834022E-01
  1.34093508E-02 -9.61334271E-01  0.00000000E+00  8.10242512E-01 -2.38678607E-02
  1.30418579E+00  0.00000000E+00  9.42403302E-01  5.81554328E-02 -2.43830798E-01
  0.00000000E+00  3.21423191E-02  0.00000000E+00  0.00000000E+00  1.00056495E-01
 -3.00534168E-02 -2.76041555E-02 -6.02291108E-01  3.01178846E-02  1.90076010E-01
 -9.85591739E-03  3.74603814E-01 -2.76041555E-02 -6.02291108E-01  3.01178846E-02
  1.90076010E-01 -9.85591739E-03 -3.74603814E-01 -1.15763514E-01 -4.57804503E-01
 -3.86925272E-02 -4.16311588E-01 -7.95841790E-02  0.00000000E+00 -1.63863332E-01
  4.87924690E-01 -2.24867314E-01 -1.81367323E-01  3.90466816E-02  0.00000000E+00
  0.00000000E+00  0.00000000E+00  0.00000000E+00  0.00000000E+00  6.86542586E-03
  0.00000000E+00  0.00000000E+00  0.00000000E+00 -3.50126745E-02  0.00000000E+00
  0.00000000E+00  0.00000000E+00  2.96984072E-01  0.00000000E+00  8.49341893E-01
  4.85862671E-01  0.00000000E+00  0.00000000E+00  0.00000000E+00  0.00000000E+00
  0.00000000E+00  0.00000000E+00 -1.78398838E-01  0.00000000E+00  0.00000000E+00
  0.00000000E+00  5.16050846E-01  0.00000000E+00  0.00000000E+00  0.00000000E+00
 -2.07033580E-01  0.00000000E+00  6.40209952E-02  5.38541326E-01  0.00000000E+00
  0.00000000E+00 -2.28453112E-01 -8.80874114E-02  5.41727447E-02  1.70306420E-01
 -1.80725777E-02  1.96195533E-01  2.28453112E-01  8.80874114E-02 -5.41727447E-02
 -1.70306420E-01  1.80725777E-02  1.96195533E-01  0.00000000E+00  0.00000000E+00
  0.00000000E+00  0.00000000E+00  0.00000000E+00 -9.45863564E-02  0.00000000E+00
  0.00000000E+00  0.00000000E+00  0.00000000E+00  0.00000000E+00 -3.65485734E-01
  0.00000000E+00  0.00000000E+00  0.00000000E+00  0.00000000E+00  1.19376515E-02
  0.00000000E+00  0.00000000E+00  0.00000000E+00 -2.67000096E-02  0.00000000E+00
  0.00000000E+00  0.00000000E+00  5.73214655E-02  0.00000000E+00 -5.66365534E-01
  8.34251731E-01  0.00000000E+00  0.00000000E+00  0.00000000E+00  0.00000000E+00
  0.00000000E+00  0.00000000E+00  9.34194671E-02  0.00000000E+00  0.00000000E+00
  0.00000000E+00  9.26660891E-03  0.00000000E+00  0.00000000E+00  0.00000000E+00
 -7.88008919E-02  0.00000000E+00  1.66839351E-01  4.92029621E-01  0.00000000E+00
  0.00000000E+00 -2.50805211E-01  1.08540569E-01 -6.10825746E-02  6.80191481E-02
 -7.98347241E-02  1.49825950E-01  2.50805211E-01 -1.08540569E-01  6.10825746E-02
 -6.80191481E-02  7.98347241E-02  1.49825950E-01  0.00000000E+00  0.00000000E+00
  0.00000000E+00  0.00000000E+00  0.00000000E+00  3.67034525E-02  0.00000000E+00
  0.00000000E+00  0.00000000E+00  0.00000000E+00  0.00000000E+00  2.97932044E-01
 -1.13933881E-03 -1.51213471E-03  1.62562578E-02  1.39720586E-02  0.00000000E+00
 -2.75810629E-02 -1.84423947E-02  4.16257921E-03  0.00000000E+00  2.07039703E-01
  3.15429972E-01  1.74719017E-01  0.00000000E+00 -3.08907566E-01  0.00000000E+00
  0.00000000E+00  3.59408717E-01  8.64265603E-01 -1.14364002E-02 -2.53654305E-02
 -1.23480480E-01 -1.70399522E-01  0.00000000E+00  1.38383227E-01  6.22182200E-01
  4.40360141E-01  0.00000000E+00  3.78498097E-01  9.83644322E-02 -3.96714295E-02
  0.00000000E+00  3.07262426E-01  0.00000000E+00  0.00000000E+00 -1.52229475E-01
  6.76039130E-01 -1.09629919E-01 -5.05407926E-01  6.38854298E-03  9.77720780E-02
  7.55889530E-02  3.74820544E-01 -1.09629919E-01 -5.05407926E-01  6.38854298E-03
  9.77720780E-02  7.55889530E-02 -3.74820544E-01  3.26382645E-01  1.35060399E-01
  2.79010151E-02  3.23123596E-01  3.70519749E-02  0.00000000E+00 -1.37418871E-02
 -2.55255583E-01 -1.44112987E-02 -6.42366244E-02 -4.14778271E-01  0.00000000E+00
  1.11738136E-02  1.99828328E-02 -2.65253153E-01 -1.08382470E-03  0.00000000E+00
  4.68915575E-02 -4.66053154E-02  4.19456407E-02  0.00000000E+00 -1.48664743E+00
 -9.73012282E-01 -1.01701036E-01  0.00000000E+00  6.35892699E-01  0.00000000E+00
  0.00000000E+00 -4.30948942E-01  1.91528896E-01  4.99494653E-03  1.34375307E-02
 -8.19673377E-01  2.09692185E-01  0.00000000E+00 -1.15529727E-01  2.24359034E+00
 -4.86986243E-01  0.00000000E+00  1.90332050E-01 -7.80130493E-02 -2.57499877E-02
  0.00000000E+00  5.35444068E-01  0.00000000E+00  0.00000000E+00 -6.04351820E-01
  5.40760055E-01 -2.69931629E-01 -3.07118097E-01  8.13006800E-02  8.92963332E-03
  1.26870669E-01  3.37371319E-01 -2.69931629E-01 -3.07118097E-01  8.13006800E-02
  8.92963332E-03  1.26870669E-01 -3.37371319E-01  6.17375282E-01  1.06646806E+00
 -3.14679658E-01  9.85832095E-01 -2.16116073E-01  0.00000000E+00  2.88789547E-01
  1.20412311E+00  3.13464069E-02 -7.20999970E-01  3.17513173E-01  0.00000000E+00
  0.00000000E+00  0.00000000E+00  0.00000000E+00  0.00000000E+00 -5.05849645E-02
  0.00000000E+00  0.00000000E+00  0.00000000E+00  6.19748567E-02  0.00000000E+00
  0.00000000E+00  0.00000000E+00 -1.77240537E-01  0.00000000E+00 -1.68418129E-01
 -2.40983726E-01  0.00000000E+00  0.00000000E+00  0.00000000E+00  0.00000000E+00
  0.00000000E+00  0.00000000E+00 -1.15522592E+00  0.00000000E+00  0.00000000E+00
  0.00000000E+00  3.26343379E+00  0.00000000E+00  0.00000000E+00  0.00000000E+00
 -6.73094249E-02  0.00000000E+00  1.06407905E+00  9.27212577E-01  0.00000000E+00
  0.00000000E+00 -6.40373352E-01 -1.37674191E+00  3.19711194E-01  6.24125715E-01
  5.27964441E-01  9.24777472E-01  6.40373352E-01  1.37674191E+00 -3.19711194E-01
 -6.24125715E-01 -5.27964441E-01  9.24777472E-01  0.00000000E+00  0.00000000E+00
  0.00000000E+00  0.00000000E+00  0.00000000E+00 -2.28695786E-01  0.00000000E+00
  0.00000000E+00  0.00000000E+00  0.00000000E+00  0.00000000E+00  5.45045186E-02
 -1.13870549E-02 -1.96738829E-02  1.83609984E-01  4.56850098E-02  0.00000000E+00
 -2.90402190E-02  6.37319214E-02 -5.09541559E-02  0.00000000E+00  1.27284381E+00
  5.09946716E-01  1.62117833E-01  0.00000000E+00 -5.73987371E-01  0.00000000E+00
  0.00000000E+00  2.54313041E-01 -5.90283147E-01  4.77651828E-05 -3.10864281E-03
 -8.08938490E-01 -2.91459578E-01  0.00000000E+00  5.35249372E-02  2.35068021E+00
  6.99795429E-01  0.00000000E+00 -4.55616472E-01 -1.35489479E-01  8.73850935E-02
  0.00000000E+00  8.54951288E-01  0.00000000E+00  0.00000000E+00 -3.64565820E-01
  4.70871663E-01 -2.92089349E-01 -6.17420470E-01  1.87373436E-01  1.73956421E-01
  2.43146306E-01  5.24736018E-01 -2.92089349E-01 -6.17420470E-01  1.87373436E-01
  1.73956421E-01  2.43146306E-01 -5.24736018E-01  4.80573725E-01  1.17806972E+00
 -2.48785156E-01  9.08566177E-01 -4.35553458E-01  0.00000000E+00 -3.00387294E-01
 -7.81416777E-01 -1.03835842E-02  6.16209433E-01 -1.34942896E-01  0.00000000E+00
  9.07277036E-04  8.15996621E-03 -5.92350743E-02  4.42757345E-01  0.00000000E+00
 -3.10419627E-01  7.45728073E-04 -2.04939354E-01  0.00000000E+00  1.38691771E+00
 -9.58980075E-02  1.24484064E+00  0.00000000E+00 -3.93909623E-01  0.00000000E+00
  0.00000000E+00 -9.15649593E-01  1.49434638E-01 -1.26609292E-03 -2.29305812E-02
  7.74610618E-02 -7.22841818E-01  0.00000000E+00  2.72761571E-01 -2.39917344E-01
  1.73509924E+00  0.00000000E+00 -1.03225845E+00  1.34732289E-03  3.41752111E-01
  0.00000000E+00  2.90550540E-01  0.00000000E+00  0.00000000E+00  6.72276139E-01
 -7.31494552E-03 -1.51195111E-01 -1.10192575E-01  2.16999321E-02  1.26038495E-01
 -4.82624670E-04  2.19101729E-01 -1.51195111E-01 -1.10192575E-01  2.16999321E-02
  1.26038495E-01 -4.82624670E-04 -2.19101729E-01 -1.88407824E-01 -3.17785541E-01
  1.15258480E-01 -3.85670807E-01  2.78885216E-02  0.00000000E+00  1.60619792E-01
 -6.01170407E-02  2.46651196E-01 -1.76572917E-01  2.14291684E-02  0.00000000E+00
  0.00000000E+00  0.00000000E+00  0.00000000E+00  0.00000000E+00 -1.27280002E+00
  0.00000000E+00  0.00000000E+00  0.00000000E+00  1.41789089E+00  0.00000000E+00
  0.00000000E+00  0.00000000E+00 -6.16677799E-01  0.00000000E+00  1.10621562E-02
  4.09889751E-03  0.00000000E+00  0.00000000E+00  0.00000000E+00  0.00000000E+00
  0.00000000E+00  0.00000000E+00  8.14658035E-02  0.00000000E+00  0.00000000E+00
  0.00000000E+00 -1.70848356E-01  0.00000000E+00  0.00000000E+00  0.00000000E+00
  3.16991226E-01  0.00000000E+00 -3.76151419E-02  7.14780732E-02  0.00000000E+00
  0.00000000E+00  1.90602023E-02 -5.46866097E-02 -6.83576041E-02  1.26658138E-02
 -6.49930687E-02 -2.79267101E-02 -1.90602023E-02  5.46866097E-02  6.83576041E-02
 -1.26658138E-02  6.49930687E-02 -2.79267101E-02  0.00000000E+00  0.00000000E+00
  0.00000000E+00  0.00000000E+00  0.00000000E+00 -4.13708059E-02  0.00000000E+00
  0.00000000E+00  0.00000000E+00  0.00000000E+00  0.00000000E+00 -3.18110652E-02
 -1.51016114E-02 -2.57713124E-02 -9.94400941E-01 -7.52442166E-01  0.00000000E+00
  2.47774958E-02  1.34253095E+00  9.32098863E-01  0.00000000E+00  1.06023682E+00
 -2.24265631E-01  2.05920852E-02  0.00000000E+00 -3.23350724E-01  0.00000000E+00
  0.00000000E+00 -4.88818460E-02 -1.05510143E-01  9.86001570E-03 -3.39132187E-03
  6.12511837E-02 -3.09464846E-01  0.00000000E+00  1.28390480E-01 -1.42171674E-01
  8.69702600E-01  0.00000000E+00 -2.47214492E-01  2.65143668E-01  1.33140424E-01
  0.00000000E+00  2.03238638E-01  0.00000000E+00  0.00000000E+00  4.07650393E-01
  7.60904056E-02 -6.19665100E-02 -1.82901291E-01 -5.43425917E-03  3.73703373E-02
 -1.15145079E-02  1.46750821E-01 -6.19665100E-02 -1.82901291E-01 -5.43425917E-03
  3.73703373E-02 -1.15145079E-02 -1.46750821E-01 -1.13159892E-01 -4.29892672E-02
  9.29033695E-02 -1.62456090E-01  2.40206278E-02  0.00000000E+00 -2.53418443E-01
 -3.70770875E-01 -4.23264144E-02  4.32756439E-01 -2.35566890E-01  0.00000000E+00
  2.00482119E-03  6.15687007E-03  7.88992284E-01 -9.80666933E-01  0.00000000E+00
 -7.07283869E-02 -1.22917136E+00  1.44554117E+00  0.00000000E+00 -3.13269872E-01
  1.35009431E-01 -3.03416360E-01  0.00000000E+00  4.98979737E-02  0.00000000E+00
  0.00000000E+00 -4.97941281E-01  1.77803431E-01  1.16776329E-02 -7.68083784E-03
 -4.79595029E-02 -3.19723599E-01  0.00000000E+00  1.76288528E-01  1.59310073E-01
  8.41781415E-01  0.00000000E+00  3.61080692E-01 -7.89659579E-02 -1.14301508E-01
  0.00000000E+00  3.12358351E-01  0.00000000E+00  0.00000000E+00  3.79912156E-01
 -1.44742643E-02 -8.12300280E-02 -2.84183848E-01  5.96630145E-02  1.02600993E-01
  5.44745701E-02  1.59892153E-01 -8.12300280E-02 -2.84183848E-01  5.96630145E-02
  1.02600993E-01  5.44745701E-02 -1.59892153E-01 -4.89145659E-02 -1.61332547E-01
 -3.89029082E-02 -1.04390507E-01 -7.18364773E-02  0.00000000E+00  3.16508783E-01
  4.80869985E-01 -1.62524434E-01 -6.51607935E-01  1.78943293E-01  0.00000000E+00
  4.79172113E-03 -1.94953904E-04 -1.88133762E-03 -1.30725587E-02  0.00000000E+00
 -4.93630504E-02  8.65335351E-03 -2.03094475E-03  0.00000000E+00  1.32138393E-01
  1.80775633E-02  6.77555450E-02  0.00000000E+00 -1.74063533E-02  0.00000000E+00
  0.00000000E+00 -1.63582794E-02 -2.57974153E-03 -2.03855051E+00  2.23222642E+00
 -2.96849331E-03  2.48258208E-02  0.00000000E+00 -6.96945261E-01  2.29689736E-02
 -1.64515101E-01  0.00000000E+00 -7.35216169E-02  6.55531690E-03  1.28364614E-02
  0.00000000E+00 -3.58185692E-02  0.00000000E+00  0.00000000E+00 -6.56505205E-02
 -7.38381832E-03 -7.70741824E-03  2.61037200E-01 -5.97537803E-02 -8.06589941E-02
 -5.81089389E-02 -1.43950760E-01 -7.70741824E-03  2.61037200E-01 -5.97537803E-02
 -8.06589941E-02 -5.81089389E-02  1.43950760E-01 -5.23527812E-03  2.75865732E-01
 -5.32587849E-02  1.78131009E-01 -4.37267890E-02  0.00000000E+00  4.66979168E-03
 -4.76487143E-02  2.03990566E-02  1.39026604E-02 -1.68032042E-02  0.00000000E+00
 -2.24728655E+00  2.33756416E+00  1.03939755E-02  5.92410818E-03  0.00000000E+00
 -2.91118226E-01 -4.14460761E-02 -1.98807730E-02  0.00000000E+00  2.89371122E-01
  6.03908298E-05  1.05177500E-01  0.00000000E+00  6.13375526E-03  0.00000000E+00
  0.00000000E+00 -1.34445672E-02  9.29283559E-03 -6.70347866E-03  1.12603402E-02
  8.83967014E-04  1.17842385E-02  0.00000000E+00 -1.51287182E-02 -1.56693449E-03
 -1.15380103E-02  0.00000000E+00 -2.64748192E-01  8.33287855E-03  7.47288938E-02
  0.00000000E+00 -9.91195969E-03  0.00000000E+00  0.00000000E+00 -1.65417650E-02
  5.70344908E-05 -3.53981507E-03  6.33757066E-02  6.56121776E-03 -8.05138045E-03
 -1.40367443E-02 -1.30415796E-02 -3.53981507E-03  6.33757066E-02  6.56121776E-03
 -8.05138045E-03 -1.40367443E-02  1.30415796E-02 -3.03006623E-03  6.64594657E-02
  1.22231630E-02  1.60117467E-02 -7.61742467E-03  0.00000000E+00 -4.04700050E-04
  3.37161352E-02 -5.97756217E-03 -5.87661106E-02  1.23573650E-02  0.00000000E+00
Total SCF Density                          R   N=        1830
  6.36947639E-01  5.68301054E-01  5.25439965E-01  1.06983138E-02  1.70517475E-02
  1.21843093E-01  7.68505325E-03  1.21010061E-02  1.46985246E-02  1.08025072E-01
  0.00000000E+00  0.00000000E+00  0.00000000E+00  0.00000000E+00  1.71630949E-01
 -1.31607534E-01 -2.25359154E-01 -5.02237844E-02 -3.37772921E-02  0.00000000E+00
  6.60945921E-01  1.16611468E-02  2.07078647E-02  1.85087113E-01  2.06249396E-02
  0.00000000E+00 -6.89031040E-02  2.81341599E-01  8.14412872E-03  1.42217555E-02
  1.97711150E-02  1.67828200E-01  0.00000000E+00 -4.46420356E-02  2.74840184E-02
  2.60942594E-01  0.00000000E+00  0.00000000E+00  0.00000000E+00  0.00000000E+00
  2.60145985E-01  0.00000000E+00  0.00000000E+00  0.00000000E+00  3.94416629E-01
 -1.18371761E-01 -1.97782826E-01 -1.06479080E-01 -5.80324753E-02  0.00000000E+00
  5.68061164E-01 -1.55150317E-01 -8.23934958E-02  0.00000000E+00  5.29150128E-01
  1.63742207E-02  2.78375243E-02  1.45734257E-01  3.41903080E-02  0.00000000E+00
 -8.58003418E-02  2.20594206E-01  4.91874529E-02  0.00000000E+00 -1.52651892E-01
  1.78991456E-01  8.77812825E-03  1.51091473E-02  4.31490893E-02  1.35959848E-01
  0.00000000E+00 -4.69687296E-02  6.34005303E-02  2.10433206E-01  0.00000000E+00
 -8.86594305E-02  7.25116823E-02  1.77307015E-01  0.00000000E+00  0.00000000E+00
  0.00000000E+00  0.00000000E+00  2.71413308E-01  0.00000000E+00  0.00000000E+00
  0.00000000E+00  4.10801761E-01  0.00000000E+00  0.00000000E+00  0.00000000E+00
  4.32464765E-01  8.72902972E-04  1.27952366E-03 -5.94537670E-03 -3.97598108E-03
  0.00000000E+00 -2.87226690E-03 -9.03568838E-03 -6.12126251E-03  0.00000000E+00
  1.73716571E-03 -7.46273181E-03 -6.09918572E-03  0.00000000E+00  4.62286502E-04
  0.00000000E+00  0.00000000E+00  0.00000000E+00  0.00000000E+00  7.43780890E-03
  0.00000000E+00  0.00000000E+00  0.00000000E+00  1.12820503E-02  0.00000000E+00
  0.00000000E+00  0.00000000E+00  1.17156662E-02  0.00000000E+00  3.22983807E-04
  0.00000000E+00  0.00000000E+00  0.00000000E+00  0.00000000E+00  5.92102213E-03
  0.00000000E+00  0.00000000E+00  0.00000000E+00  9.09099171E-03  0.00000000E+00
  0.00000000E+00  0.00000000E+00  8.71799710E-03  0.00000000E+00  2.65768959E-04
  3.32112681E-04  2.12603191E-04  3.20440295E-04  8.18012746E-03 -8.40488751E-03
  0.00000000E+00 -9.74751910E-04  1.25755319E-02 -1.33328825E-02  0.00000000E+00
 -3.00160578E-03  8.33770904E-03 -8.49849080E-03  0.00000000E+00 -9.40016314E-05
  0.00000000E+00  0.00000000E+00  1.40959547E-03  1.28555495E-03  2.11500708E-03
  2.30972942E-03  6.37906000E-03  0.00000000E+00 -6.08213927E-03  3.46809442E-03
  9.87219679E-03  0.00000000E+00 -7.18288100E-03  3.38882831E-03  8.08488309E-03
  0.00000000E+00 -2.49730095E-04  0.00000000E+00  0.00000000E+00 -3.91939646E-04
  5.61110623E-04  1.28717438E-03  2.06060716E-03 -5.96522359E-04 -1.52940711E-02
  0.00000000E+00 -5.08476352E-03 -6.64565989E-04 -2.43138161E-02  0.00000000E+00
  5.00091973E-03 -2.91032587E-03 -1.52035365E-02  0.00000000E+00  9.11780654E-04
  0.00000000E+00  0.00000000E+00  1.83363200E-03 -8.00924323E-04  6.55980213E-01
  1.94010969E-03  3.12264162E-03 -9.51454230E-04 -2.59396452E-02  0.00000000E+00
 -7.59020703E-03 -1.00398891E-03 -4.15640810E-02  0.00000000E+00  8.89182160E-03
 -4.90154733E-03 -2.59596289E-02  0.00000000E+00  1.61191668E-03  0.00000000E+00
  0.00000000E+00  3.27215631E-03 -1.38412326E-03  5.60585882E-01  4.93075494E-01
 -7.80764409E-04 -1.30475603E-03 -2.66831952E-03  1.49011447E-03  0.00000000E+00
  3.45172643E-03 -1.85199602E-03  3.21227503E-03  0.00000000E+00  1.07247946E-02
 -1.32124585E-02 -3.43940828E-03  0.00000000E+00  4.14998912E-04  0.00000000E+00
  0.00000000E+00 -5.02233079E-04  3.40051125E-03  5.74174280E-04  8.50547242E-04
  7.68968785E-02  8.21811044E-03  1.37380460E-02 -2.69614419E-03 -6.19460928E-02
  0.00000000E+00 -3.88843710E-02 -3.75668646E-03 -9.63226777E-02  0.00000000E+00
 -2.06229930E-02 -1.11862746E-02 -8.02097715E-02  0.00000000E+00  2.25303858E-03
  0.00000000E+00  0.00000000E+00  4.70618604E-03 -3.17551668E-03 -5.25673980E-03
 -7.62357833E-03  6.35133168E-04  5.13447414E-02  0.00000000E+00  0.00000000E+00
  0.00000000E+00  0.00000000E+00 -1.92281903E-03  0.00000000E+00  0.00000000E+00
  0.00000000E+00 -1.04778192E-04  0.00000000E+00  0.00000000E+00  0.00000000E+00
 -1.86286132E-02  0.00000000E+00  1.38283944E-04  3.02156707E-03  0.00000000E+00
  0.00000000E+00  0.00000000E+00  0.00000000E+00  0.00000000E+00  0.00000000E+00
  7.46045893E-02 -3.74049448E-03 -5.95827388E-03  2.25546458E-03  6.99627780E-02
  0.00000000E+00  1.33939067E-02  2.08058165E-03  1.12819501E-01  0.00000000E+00
 -2.81908912E-02  1.32526362E-02  7.07925328E-02  0.00000000E+00 -4.43515369E-03
  0.00000000E+00  0.00000000E+00 -9.19038084E-03  3.76910227E-03 -8.56815665E-02
 -1.45879606E-01 -3.16872340E-03  1.64042369E-02  0.00000000E+00  3.88027186E-01
 -6.64931483E-04 -1.15131048E-03  9.16066838E-04  4.61620777E-03  0.00000000E+00
  2.77747321E-03  4.88079556E-03  8.49271732E-03  0.00000000E+00  1.16971229E-02
 -1.46639297E-02 -1.74501938E-03  0.00000000E+00  3.56102745E-04  0.00000000E+00
  0.00000000E+00 -6.09019811E-04  5.62759263E-03  7.03711607E-05  1.93407605E-04
  1.22829569E-01  2.08419512E-04  0.00000000E+00 -2.64973697E-03  1.96448736E-01
  1.43570659E-02  2.41698680E-02 -5.53860615E-03 -1.14513457E-01  0.00000000E+00
 -6.87170143E-02 -7.71912972E-03 -1.78298909E-01  0.00000000E+00 -3.35152667E-02
 -2.14394082E-02 -1.47087654E-01  0.00000000E+00  4.30505639E-03  0.00000000E+00
  0.00000000E+00  8.90507337E-03 -5.90271014E-03 -8.12735406E-04 -1.60310991E-03
  1.16893488E-03  8.99355592E-02  0.00000000E+00  3.88946359E-03  2.52473709E-04
  1.59162101E-01  0.00000000E+00  0.00000000E+00  0.00000000E+00  0.00000000E+00
  1.31719097E-03  0.00000000E+00  0.00000000E+00  0.00000000E+00  6.48238118E-03
  0.00000000E+00  0.00000000E+00  0.00000000E+00 -2.28042333E-02  0.00000000E+00
  4.10900156E-04  4.97549598E-03  0.00000000E+00  0.00000000E+00  0.00000000E+00
  0.00000000E+00  0.00000000E+00  0.00000000E+00  1.19062390E-01  0.00000000E+00
  0.00000000E+00  0.00000000E+00  1.90125255E-01  1.64303469E-02  2.72116453E-02
 -4.41778127E-03  1.99837492E-02  0.00000000E+00 -7.81241472E-02 -7.94753394E-03
  3.26449505E-02  0.00000000E+00 -7.78951481E-02 -3.38385966E-04  1.31058144E-02
  0.00000000E+00 -7.40494314E-04  0.00000000E+00  0.00000000E+00 -3.99142501E-03
  1.85958943E-03 -4.98991895E-02 -8.17023262E-02  6.70449254E-03  3.01788281E-02
  0.00000000E+00  2.09283955E-01  1.16121356E-02  3.97969536E-02  0.00000000E+00
  1.31176463E-01  1.10191014E-03  2.00706793E-03  6.64530024E-03  1.55644489E-02
  0.00000000E+00 -6.94804926E-03  1.20361947E-02  2.48988089E-02  0.00000000E+00
 -5.82593629E-03  1.23011733E-04  1.55907187E-02  0.00000000E+00 -4.31803057E-04
  0.00000000E+00  0.00000000E+00 -1.06149347E-03  4.31978361E-03 -2.38980574E-03
 -4.06685877E-03  7.64443597E-02 -6.04044951E-03  0.00000000E+00  9.74443665E-03
  1.22715834E-01 -1.15637815E-02  0.00000000E+00  1.17806882E-02  7.83576581E-02
 -9.02671199E-04 -1.32309102E-03  2.78386965E-03 -4.40702642E-02  0.00000000E+00
  3.24929061E-03  4.62621840E-03 -6.82511518E-02  0.00000000E+00  6.56540251E-03
 -2.59510402E-03 -5.59504845E-02  0.00000000E+00  9.76716184E-04  0.00000000E+00
  0.00000000E+00  3.61989527E-03 -2.68705892E-03 -6.28760741E-03 -1.00860215E-02
 -6.48063538E-03  3.56716373E-02  0.00000000E+00  2.47727272E-02 -1.07091136E-02
  6.16514062E-02  0.00000000E+00  2.33807997E-02 -1.09168621E-02  2.76506739E-02
  0.00000000E+00  0.00000000E+00  0.00000000E+00  0.00000000E+00  6.83495017E-03
  0.00000000E+00  0.00000000E+00  0.00000000E+00  1.28510821E-02  0.00000000E+00
  0.00000000E+00  0.00000000E+00 -3.01202702E-03  0.00000000E+00  4.92686411E-04
  2.97361302E-03  0.00000000E+00  0.00000000E+00  0.00000000E+00  0.00000000E+00
  0.00000000E+00  0.00000000E+00  6.60507730E-02  0.00000000E+00  0.00000000E+00
  0.00000000E+00  1.05629473E-01  0.00000000E+00  0.00000000E+00  0.00000000E+00
  5.89024850E-02  2.68513122E-03  4.53156693E-03 -7.34894718E-04 -1.10934467E-02
  0.00000000E+00 -1.29983744E-02 -8.64844631E-04 -1.72788725E-02  0.00000000E+00
 -7.28204656E-03 -3.25978753E-03 -1.47282204E-02  0.00000000E+00  5.47928103E-04
  0.00000000E+00  0.00000000E+00  8.59160040E-04 -1.55664246E-04  8.96101562E-04
  1.41060339E-03  8.84995594E-03  8.92297558E-03  0.00000000E+00 -3.64642890E-03
  1.39715249E-02  1.60257666E-02  0.00000000E+00  3.49449182E-03  7.54334391E-03
  4.88209217E-03  0.00000000E+00  2.70611673E-03  0.00000000E+00  0.00000000E+00
  0.00000000E+00  0.00000000E+00  2.94164368E-05  0.00000000E+00  0.00000000E+00
  0.00000000E+00  4.36269172E-04  0.00000000E+00  0.00000000E+00  0.00000000E+00
 -2.12649432E-03  0.00000000E+00  3.21682392E-05  4.31479808E-04  0.00000000E+00
  0.00000000E+00  0.00000000E+00  0.00000000E+00  0.00000000E+00  0.00000000E+00
  1.03968251E-02  0.00000000E+00  0.00000000E+00  0.00000000E+00  1.66000237E-02
  0.00000000E+00  0.00000000E+00  0.00000000E+00  9.21956991E-03  0.00000000E+00
  1.44940714E-03  0.00000000E+00  0.00000000E+00  0.00000000E+00  0.00000000E+00
 -1.85464159E-02  0.00000000E+00  0.00000000E+00  0.00000000E+00 -2.78075435E-02
  0.00000000E+00  0.00000000E+00  0.00000000E+00 -3.10143064E-02  0.00000000E+00
 -7.79767126E-04 -3.05949382E-04  0.00000000E+00  0.00000000E+00  0.00000000E+00
  0.00000000E+00  0.00000000E+00  0.00000000E+00  8.27197660E-03  0.00000000E+00
  0.00000000E+00  0.00000000E+00  1.27327294E-02  0.00000000E+00  0.00000000E+00
  0.00000000E+00  6.41135139E-03  0.00000000E+00  1.12100038E-03  2.87605410E-03
  4.70758607E-03  7.97615131E-03  9.77938762E-04 -1.87653830E-02  0.00000000E+00
 -2.29536973E-02  1.27902377E-03 -2.95075408E-02  0.00000000E+00 -1.62730191E-02
  4.91730883E-05 -2.31234988E-02  0.00000000E+00  7.17801979E-04  0.00000000E+00
  0.00000000E+00  1.66626774E-03 -1.20550754E-03  1.24207357E-03  1.86701250E-03
 -7.23001805E-03  1.47958916E-02  0.00000000E+00 -4.30344267E-03 -1.17594186E-02
  2.65003157E-02  0.00000000E+00  4.31579420E-03 -9.16194544E-03  1.01602792E-02
  0.00000000E+00  1.98299026E-03  0.00000000E+00  0.00000000E+00  5.39493374E-03
 -1.16980580E-03 -1.97951421E-03 -1.29317382E-02 -3.92176722E-03  0.00000000E+00
  6.13953280E-03 -1.94181557E-02 -5.69675987E-03  0.00000000E+00  1.29880894E-02
 -1.67157729E-02 -7.93435466E-03  0.00000000E+00  7.28158029E-04  0.00000000E+00
  0.00000000E+00 -6.81879242E-04 -9.40822263E-05  2.51765691E-04  4.25606383E-04
  6.80831379E-03  1.95984681E-03  0.00000000E+00 -1.24819187E-03  1.03004835E-02
  3.60709123E-03  0.00000000E+00  1.08972471E-03  5.50372113E-03  3.52472187E-04
  0.00000000E+00  1.10831282E-03  0.00000000E+00  0.00000000E+00 -2.46229572E-04
  1.98868168E-03  1.37983788E-03  2.33840266E-03 -5.24579821E-03 -8.80128385E-03
 -1.25704961E-02 -7.13883998E-03 -7.19785525E-03 -1.24898931E-02 -1.69907965E-02
 -3.91857568E-03 -1.12066016E-02 -1.78598005E-02 -3.13221774E-02  3.15887543E-04
 -3.82065276E-04  1.83324238E-03 -4.69128737E-04  8.64500922E-04 -1.72831599E-02
 -2.89099484E-02  3.06231821E-02  2.11709764E-02  5.48941283E-02  7.49150055E-02
  4.89163068E-02  3.26138277E-02  8.73210671E-02  5.12490947E-02  3.01675062E-02
  1.42746260E-02  4.80451530E-02  6.00664937E-03  7.63065925E-03  7.27849667E-03
  1.40997437E-03  3.58061224E-03  7.45626084E-02 -1.37055210E-03 -2.22427010E-03
 -1.47628766E-02 -1.53318504E-02 -4.35887467E-02  5.85587762E-03 -2.10387627E-02
 -2.17771643E-02 -6.25963954E-02  1.20923891E-02 -2.59664852E-02 -3.05599456E-02
 -8.81943915E-02  7.60613596E-04 -1.61508879E-03  2.31239654E-03 -1.00168145E-03
  1.09818135E-03 -2.49668993E-02 -4.13786133E-02  4.80244445E-02  3.04881530E-02
  9.26608943E-02  1.06082636E-01  7.63761426E-02  4.71271125E-02  1.46825532E-01
  7.19990770E-02  4.65014786E-02  2.05737983E-02  7.99868260E-02  8.98361359E-03
  1.28417274E-02  1.46762345E-02  1.38464062E-03  6.28229247E-03  1.20511866E-01
  1.99524234E-01 -1.65376843E-03 -2.81899225E-03 -1.24819832E-02 -1.44839254E-02
 -2.08018771E-02  8.58062574E-03 -1.81556129E-02 -2.18863263E-02 -3.00931690E-02
  1.76079055E-02 -1.98057937E-02 -2.22810267E-02 -4.08670506E-02  1.04556728E-03
 -7.88142543E-04  8.61473128E-04  1.53426534E-04 -3.94320945E-05 -3.39443462E-04
 -7.23940639E-04  2.14970729E-02  1.03934677E-02  3.83737378E-02  1.78736831E-03
  3.36787924E-02  1.83328906E-02  6.07346825E-02  6.70307696E-03  1.89851283E-02
  5.42995357E-03  3.29881626E-02  4.12868860E-03  5.31338894E-03  6.37176140E-03
  6.29703649E-04  3.47797838E-03  4.24921563E-02  7.30645537E-02  3.12854819E-02
  7.06217162E-05  9.88826959E-05 -8.13661070E-04 -1.13595701E-03  1.32574741E-03
 -1.48617627E-04 -1.15243839E-03 -1.82151585E-03  1.85141019E-03  1.29005650E-03
 -1.41178578E-03 -1.31253385E-03  2.97342767E-03  1.34675814E-04  4.49855984E-05
 -1.27978018E-04  1.10079961E-04  2.48122118E-05  2.13061517E-03  3.52759724E-03
  2.23649939E-03 -7.17211393E-04 -4.21063075E-03 -9.15671117E-03  3.49377232E-03
 -6.78068243E-04 -6.68868406E-03 -4.76618057E-03  1.93149711E-03 -1.05360997E-03
 -3.66729438E-03  2.76485360E-04 -5.84679876E-04 -5.96923242E-04 -2.07849330E-04
  2.78457035E-04 -4.16948030E-03 -6.76864201E-03 -1.75762378E-03  5.30129343E-04
  5.12866517E-04  8.29696645E-04  1.24073513E-04 -3.00034759E-03  1.28474494E-03
 -2.22982799E-03  1.76614257E-04 -4.76347863E-03  1.83485438E-03 -1.05123903E-03
 -7.20580911E-05 -3.41705839E-03  2.65564282E-03  1.32781492E-04  4.68047928E-05
 -7.92852740E-05  3.17040126E-04 -2.05836586E-04  1.41048162E-03  2.38204937E-03
 -1.21794284E-03  1.23909981E-03 -2.99991490E-03 -6.27724212E-03 -2.00214276E-03
  2.60461756E-03 -4.75673805E-03 -2.81506044E-03 -1.60860466E-03  7.13491168E-04
 -2.59588111E-03  1.89865593E-04 -4.15972639E-04 -4.61635080E-04  6.54468828E-04
 -5.66676619E-05 -3.49066359E-03 -5.81157957E-03 -1.79418498E-03  2.79211340E-04
  2.98192889E-04  4.72435242E-04  7.97668116E-04  1.05911471E-03 -4.84041744E-04
  1.19852696E-03 -2.21840459E-03  1.49486994E-03 -1.01156744E-03  1.67220037E-03
 -1.59767554E-03  1.80302218E-03  6.16772143E-04  2.69667125E-03  4.95653131E-05
  4.05467759E-05 -1.17396262E-04  2.79743398E-04 -1.97823338E-04  3.70216382E-03
  6.12592319E-03 -4.35818473E-03 -2.33092322E-03 -3.84761399E-03 -1.57424672E-02
 -6.98817613E-03 -3.10704506E-03 -6.11235387E-03 -9.42016039E-03 -4.51624429E-03
 -1.83795528E-03 -3.35176396E-03 -6.29760770E-04 -5.34294481E-04 -5.44079201E-04
  1.67738934E-04 -5.09867509E-04 -8.36234125E-03 -1.31646286E-02 -3.88162541E-03
  4.78257688E-04  4.46804861E-04  1.17372182E-03  1.37983788E-03  2.33840266E-03
 -5.24579821E-03 -8.80128385E-03  1.25704961E-02 -7.13883998E-03 -7.19785525E-03
 -1.24898931E-02  1.69907965E-02 -3.91857568E-03 -1.12066016E-02 -1.78598005E-02
  3.13221774E-02  3.15887543E-04  3.82065276E-04 -1.83324238E-03 -4.69128737E-04
  8.64500922E-04 -1.72831599E-02 -2.89099484E-02  3.06231821E-02  2.11709764E-02
 -5.48941283E-02  7.49150055E-02  4.89163068E-02  3.26138277E-02 -8.73210671E-02
  5.12490947E-02  3.01675062E-02  1.42746260E-02 -4.80451530E-02  6.00664937E-03
 -7.63065925E-03 -7.27849667E-03  1.40997437E-03  3.58061224E-03 -7.67031104E-03
 -2.12055453E-02 -1.65550489E-02  2.18517227E-03  1.08102312E-03 -2.55723118E-03
  7.45626084E-02 -1.37055210E-03 -2.22427010E-03 -1.47628766E-02 -1.53318504E-02
  4.35887467E-02  5.85587762E-03 -2.10387627E-02 -2.17771643E-02  6.25963954E-02
  1.20923891E-02 -2.59664852E-02 -3.05599456E-02  8.81943915E-02  7.60613596E-04
  1.61508879E-03 -2.31239654E-03 -1.00168145E-03  1.09818135E-03 -2.49668993E-02
 -4.13786133E-02  4.80244445E-02  3.04881530E-02 -9.26608943E-02  1.06082636E-01
  7.63761426E-02  4.71271125E-02 -1.46825532E-01  7.19990770E-02  4.65014786E-02
  2.05737983E-02 -7.99868260E-02  8.98361359E-03 -1.28417274E-02 -1.46762345E-02
  1.38464062E-03  6.28229247E-03 -2.12055453E-02 -5.04367427E-02 -3.17728865E-02
  4.27535607E-03  2.22023010E-03 -3.07898723E-03  1.20511866E-01  1.99524234E-01
 -1.65376843E-03 -2.81899225E-03 -1.24819832E-02 -1.44839254E-02  2.08018771E-02
  8.58062574E-03 -1.81556129E-02 -2.18863263E-02  3.00931690E-02  1.76079055E-02
 -1.98057937E-02 -2.22810267E-02  4.08670506E-02  1.04556728E-03  7.88142543E-04
 -8.61473128E-04  1.53426534E-04 -3.94320945E-05 -3.39443462E-04 -7.23940639E-04
  2.14970729E-02  1.03934677E-02 -3.83737378E-02  1.78736831E-03  3.36787924E-02
  1.83328906E-02 -6.07346825E-02  6.70307696E-03  1.89851283E-02  5.42995357E-03
 -3.29881626E-02  4.12868860E-03 -5.31338894E-03 -6.37176140E-03  6.29703649E-04
  3.47797838E-03 -1.65550489E-02 -3.17728865E-02 -1.27661353E-02  2.85506084E-03
  1.57074527E-03  3.30395380E-04  4.24921563E-02  7.30645537E-02  3.12854819E-02
  7.06217162E-05  9.88826959E-05 -8.13661070E-04 -1.13595701E-03 -1.32574741E-03
 -1.48617627E-04 -1.15243839E-03 -1.82151585E-03 -1.85141019E-03  1.29005650E-03
 -1.41178578E-03 -1.31253385E-03 -2.97342767E-03  1.34675814E-04 -4.49855984E-05
  1.27978018E-04  1.10079961E-04  2.48122118E-05  2.13061517E-03  3.52759724E-03
  2.23649939E-03 -7.17211393E-04  4.21063075E-03 -9.15671117E-03  3.49377232E-03
 -6.78068243E-04  6.68868406E-03 -4.76618057E-03  1.93149711E-03 -1.05360997E-03
  3.66729438E-03  2.76485360E-04  5.84679876E-04  5.96923242E-04 -2.07849330E-04
  2.78457035E-04  2.18517227E-03  4.27535607E-03  2.85506084E-03  3.75688815E-05
 -7.65461935E-05  2.83463439E-05 -4.16948030E-03 -6.76864201E-03 -1.75762378E-03
  5.30129343E-04  5.12866517E-04  8.29696645E-04  1.24073513E-04 -3.00034759E-03
 -1.28474494E-03 -2.22982799E-03  1.76614257E-04 -4.76347863E-03 -1.83485438E-03
 -1.05123903E-03 -7.20580911E-05 -3.41705839E-03 -2.65564282E-03  1.32781492E-04
 -4.68047928E-05  7.92852740E-05  3.17040126E-04 -2.05836586E-04  1.41048162E-03
  2.38204937E-03 -1.21794284E-03  1.23909981E-03  2.99991490E-03 -6.27724212E-03
 -2.00214276E-03  2.60461756E-03  4.75673805E-03 -2.81506044E-03 -1.60860466E-03
  7.13491168E-04  2.59588111E-03  1.89865593E-04  4.15972639E-04  4.61635080E-04
  6.54468828E-04 -5.66676619E-05  1.08102312E-03  2.22023010E-03  1.57074527E-03
 -7.65461935E-05  3.99411133E-05  1.21900595E-04 -3.49066359E-03 -5.81157957E-03
 -1.79418498E-03  2.79211340E-04  2.98192889E-04 -4.72435242E-04 -7.97668116E-04
 -1.05911471E-03  4.84041744E-04  1.19852696E-03  2.21840459E-03 -1.49486994E-03
  1.01156744E-03  1.67220037E-03  1.59767554E-03 -1.80302218E-03 -6.16772143E-04
  2.69667125E-03 -4.95653131E-05  4.05467759E-05 -1.17396262E-04 -2.79743398E-04
  1.97823338E-04 -3.70216382E-03 -6.12592319E-03  4.35818473E-03  2.33092322E-03
 -3.84761399E-03  1.57424672E-02  6.98817613E-03  3.10704506E-03 -6.11235387E-03
  9.42016039E-03  4.51624429E-03  1.83795528E-03 -3.35176396E-03  6.29760770E-04
 -5.34294481E-04 -5.44079201E-04 -1.67738934E-04  5.09867509E-04  2.55723118E-03
  3.07898723E-03 -3.30395380E-04 -2.83463439E-05 -1.21900595E-04 -7.62764880E-04
  8.36234125E-03  1.31646286E-02  3.88162541E-03 -4.78257688E-04 -4.46804861E-04
  1.17372182E-03  3.12583533E-03  5.29617539E-03  8.84091736E-03 -5.10251381E-03
  0.00000000E+00 -1.57291779E-02  1.14005476E-02 -8.15759539E-03  0.00000000E+00
 -2.71967723E-02  1.87971935E-02 -4.26467062E-03  0.00000000E+00 -8.45287894E-04
  0.00000000E+00  0.00000000E+00  5.47845812E-04 -2.94823126E-03 -1.74345440E-02
 -2.91727655E-02 -6.57060039E-02  1.67182629E-02  0.00000000E+00  7.72030584E-02
 -1.04449688E-01  2.47203340E-02  0.00000000E+00  4.03610704E-02 -6.43214435E-02
  2.00777484E-02  0.00000000E+00 -5.66962450E-03  0.00000000E+00  0.00000000E+00
  9.59887722E-03 -6.18236612E-03 -6.81880289E-03 -1.39093746E-02 -1.57031273E-02
 -3.78878419E-03  2.61022249E-04  2.71796261E-04 -6.81880289E-03 -1.39093746E-02
 -1.57031273E-02 -3.78878419E-03  2.61022249E-04 -2.71796261E-04  7.47763149E-02
  5.45262439E-03  9.45642819E-03  3.44292224E-02  4.19838197E-03  0.00000000E+00
 -2.93455504E-02  4.89666694E-02  5.60364556E-03  0.00000000E+00 -5.91805183E-02
  5.57586368E-02  1.32919732E-02  0.00000000E+00 -2.64537674E-03  0.00000000E+00
  0.00000000E+00  1.48564343E-03 -3.83990542E-03 -2.69995494E-02 -4.47950913E-02
 -1.06168319E-01  1.76295030E-02  0.00000000E+00  1.17714630E-01 -1.67817855E-01
  2.36616336E-02  0.00000000E+00  5.71988859E-02 -1.01391362E-01  2.63537347E-02
  0.00000000E+00 -1.06779411E-02  0.00000000E+00  0.00000000E+00  1.31852760E-02
 -1.23659570E-02 -1.61657470E-02 -3.10572067E-02 -2.90880954E-02 -6.00690404E-03
  2.99068878E-04  1.17413212E-03 -1.61657470E-02 -3.10572067E-02 -2.90880954E-02
 -6.00690404E-03  2.99068878E-04 -1.17413212E-03  1.18068891E-01  1.91279516E-01
  1.83550118E-03  3.17055783E-03  1.50164806E-02 -5.37895319E-03  0.00000000E+00
 -9.68524062E-03  2.17802604E-02 -9.08445262E-03  0.00000000E+00 -1.84964416E-02
  2.20030978E-02 -1.78670236E-03  0.00000000E+00 -6.99432648E-04  0.00000000E+00
  0.00000000E+00  1.61986994E-03 -1.73494499E-03 -1.59282435E-03 -2.86345781E-03
 -3.79292984E-02  5.34181475E-03  0.00000000E+00  8.51421217E-03 -6.00559109E-02
  8.92869950E-03  0.00000000E+00  1.98504261E-03 -3.72664556E-02  7.90549712E-03
  0.00000000E+00 -3.48316281E-03  0.00000000E+00  0.00000000E+00  5.22553169E-03
 -4.60761680E-03 -1.22813823E-02 -2.04160333E-02 -1.07369905E-02 -1.38534284E-03
  6.68682989E-04  1.78950767E-03 -1.22813823E-02 -2.04160333E-02 -1.07369905E-02
 -1.38534284E-03  6.68682989E-04 -1.78950767E-03  3.60270351E-02  5.93767809E-02
  2.10088784E-02 -3.74324793E-05 -5.16885963E-05  2.23174564E-03  2.65888534E-03
  0.00000000E+00 -5.52592897E-05  3.14876677E-03  4.21534766E-03  0.00000000E+00
 -3.53243177E-03  3.91046028E-03  3.32657117E-03  0.00000000E+00 -3.24619213E-04
  0.00000000E+00  0.00000000E+00 -2.11061939E-04 -1.23089776E-04 -4.56575884E-03
 -7.54795035E-03 -6.84118072E-03  1.34716612E-03  0.00000000E+00  1.95983667E-02
 -1.07390190E-02  1.12011509E-03  0.00000000E+00  9.91930780E-03 -6.12060346E-03
  2.31067912E-03  0.00000000E+00 -8.54536548E-04  0.00000000E+00  0.00000000E+00
  5.98427932E-04 -8.27301850E-04  1.21766063E-03  1.23028202E-03 -1.82455366E-03
 -6.66323847E-04 -1.87043357E-04 -4.12935795E-04  1.21766063E-03  1.23028202E-03
 -1.82455366E-03 -6.66323847E-04 -1.87043357E-04  4.12935795E-04  9.82562265E-03
  1.57289481E-02  4.00547084E-03  1.60891912E-03  6.88763383E-05  1.03395473E-04
 -1.76799539E-03 -3.26205088E-03  0.00000000E+00 -1.71883876E-04 -2.58674795E-03
 -5.04688989E-03  0.00000000E+00  1.79269312E-03 -2.84439825E-03 -4.45124717E-03
  0.00000000E+00  2.17037478E-04  0.00000000E+00  0.00000000E+00  1.62435778E-04
 -9.76757354E-05  8.73244518E-04  1.48609214E-03  2.30675984E-03  1.70606120E-03
  0.00000000E+00 -4.00849548E-03  3.55983652E-03  3.28819243E-03  0.00000000E+00
 -1.15607729E-03  1.77211418E-03  8.04714094E-04  0.00000000E+00  6.19936592E-04
  0.00000000E+00  0.00000000E+00  3.49475086E-04  4.49184459E-04  8.45258378E-04
  1.45727551E-03  1.14272147E-03  1.54227899E-04  7.95286969E-05 -4.34926025E-05
  8.45258378E-04  1.45727551E-03  1.14272147E-03  1.54227899E-04  7.95286969E-05
  4.34926025E-05 -2.29711764E-03 -4.22906093E-03 -1.18938052E-03 -4.02516250E-04
  1.97273945E-04  0.00000000E+00  0.00000000E+00  0.00000000E+00  0.00000000E+00
 -1.35756154E-03  0.00000000E+00  0.00000000E+00  0.00000000E+00 -1.88539083E-03
  0.00000000E+00  0.00000000E+00  0.00000000E+00 -3.10274531E-03  0.00000000E+00
 -4.52410585E-05  1.42531536E-04  0.00000000E+00  0.00000000E+00  0.00000000E+00
  0.00000000E+00  0.00000000E+00  0.00000000E+00  4.58901211E-03  0.00000000E+00
  0.00000000E+00  0.00000000E+00  7.29198363E-03  0.00000000E+00  0.00000000E+00
  0.00000000E+00  4.00119455E-03  0.00000000E+00  6.37372507E-04  6.41234538E-04
  0.00000000E+00  0.00000000E+00  3.45717404E-03  5.99725637E-03  2.50351470E-03
 -2.67792320E-04 -1.93249058E-04 -2.44611449E-04 -3.45717404E-03 -5.99725637E-03
 -2.50351470E-03  2.67792320E-04  1.93249058E-04 -2.44611449E-04  0.00000000E+00
  0.00000000E+00  0.00000000E+00  0.00000000E+00  0.00000000E+00  2.91226330E-04
 -1.39840529E-02 -2.33086762E-02  8.03187425E-02 -2.39051045E-02  0.00000000E+00
  6.39342521E-02  1.23429214E-01 -3.83662638E-02  0.00000000E+00  1.52190710E-02
  8.82712695E-02 -1.20409822E-02  0.00000000E+00 -3.77048680E-03  0.00000000E+00
  0.00000000E+00  8.35391282E-03 -1.04260898E-03  2.87339737E-03  5.10160182E-03
 -5.20518053E-03  9.94042164E-03  0.00000000E+00 -1.50451857E-02 -5.43638234E-03
  1.83419977E-02  0.00000000E+00 -1.96273831E-02 -3.57393897E-03  1.52351422E-02
  0.00000000E+00  3.63540882E-04  0.00000000E+00  0.00000000E+00  3.09103003E-03
 -8.02853064E-03 -3.58725842E-03 -7.74263699E-03 -5.00393069E-03 -4.27835648E-04
  6.60733138E-04  7.69033054E-04 -3.58725842E-03 -7.74263699E-03 -5.00393069E-03
 -4.27835648E-04  6.60733138E-04 -7.69033054E-04  8.82685437E-03  2.53083081E-02
  1.30422922E-02  1.25430142E-03 -5.41238202E-04  0.00000000E+00  7.60231312E-02
 -5.47064828E-03 -8.81746276E-03  1.29505396E-01 -2.74072273E-02  0.00000000E+00
  2.02925644E-02  1.97791580E-01 -4.54306742E-02  0.00000000E+00 -4.53499993E-02
  1.47546193E-01 -5.94093591E-03  0.00000000E+00 -5.66636954E-03  0.00000000E+00
  0.00000000E+00  1.25103283E-02 -8.51777115E-04  4.36800612E-03  7.57989438E-03
 -1.44178216E-02  1.63930582E-02  0.00000000E+00 -2.13418546E-02 -1.82067548E-02
  2.99353158E-02  0.00000000E+00 -2.09520287E-02 -1.00021711E-02  2.11482680E-02
  0.00000000E+00  7.71075691E-04  0.00000000E+00  0.00000000E+00  6.97198169E-03
 -1.37193777E-02 -7.69109552E-03 -1.73042540E-02 -1.10922542E-02 -8.58962766E-04
  1.21912702E-03  1.77861143E-03 -7.69109552E-03 -1.73042540E-02 -1.10922542E-02
 -8.58962766E-04  1.21912702E-03 -1.77861143E-03  2.01559581E-02  5.05537368E-02
  2.37903553E-02  2.57466088E-03 -1.15249878E-03  0.00000000E+00  1.08163236E-01
  1.62855866E-01  1.65760865E-03  2.78656524E-03  2.29094888E-02 -1.75336648E-02
  0.00000000E+00 -8.55817854E-03  3.47573549E-02 -2.79827032E-02  0.00000000E+00
 -1.63292939E-02  2.58308263E-02 -1.65107140E-02  0.00000000E+00 -5.37004108E-04
  0.00000000E+00  0.00000000E+00  3.29979228E-03 -1.18235880E-03  1.35519555E-03
  2.36812462E-03 -1.17766928E-02  1.24375625E-02  0.00000000E+00 -6.51910394E-03
 -1.81341340E-02  2.23921210E-02  0.00000000E+00 -1.65948914E-03 -1.23358472E-02
  1.08006100E-02  0.00000000E+00  8.71535048E-04  0.00000000E+00  0.00000000E+00
  5.10258688E-03 -2.89822358E-03 -2.25734631E-03 -4.90072221E-03 -2.70813788E-03
 -4.12960845E-04  7.09569405E-04  6.70815607E-04 -2.25734631E-03 -4.90072221E-03
 -2.70813788E-03 -4.12960845E-04  7.09569405E-04 -6.70815607E-04  1.35857777E-02
  2.34933218E-02  9.74872838E-03  1.23133773E-03 -9.95854625E-05  0.00000000E+00
  2.13822157E-02  3.37268237E-02  9.86989332E-03  4.73878396E-03  7.95504504E-03
 -1.47920094E-02  6.94812158E-03  0.00000000E+00 -2.23828122E-02 -2.28837132E-02
  1.09208977E-02  0.00000000E+00 -1.19252914E-02 -1.55113601E-02  5.29050905E-03
  0.00000000E+00  7.14338465E-04  0.00000000E+00  0.00000000E+00 -1.76003329E-03
  3.89917371E-04 -7.29461233E-04 -1.26186393E-03  8.71744714E-04 -2.47423562E-03
  0.00000000E+00  3.67248346E-03  9.02823830E-04 -4.59207770E-03  0.00000000E+00
  5.11675824E-03  9.28711073E-04 -3.79195128E-03  0.00000000E+00 -9.05269491E-05
  0.00000000E+00  0.00000000E+00 -5.89460428E-04  1.41093530E-03  5.46493140E-04
  1.01577000E-03  5.76786048E-04  6.96663736E-05 -1.42802754E-04 -1.09019690E-04
  5.46493140E-04  1.01577000E-03  5.76786048E-04  6.96663736E-05 -1.42802754E-04
  1.09019690E-04 -1.54525082E-03 -4.39018489E-03 -2.45648509E-03 -2.02960944E-04
  5.20305025E-05  0.00000000E+00 -1.61895792E-02 -2.19201405E-02 -4.34728318E-03
  3.60216366E-03 -3.18553274E-04 -5.50738588E-04  1.23233109E-02  8.24208209E-03
  0.00000000E+00  1.14786911E-03  1.87318366E-02  1.26100506E-02  0.00000000E+00
 -7.04869786E-03  1.53827688E-02  1.26941326E-02  0.00000000E+00 -8.79084713E-04
  0.00000000E+00  0.00000000E+00  2.31241678E-04  6.23877800E-04 -1.03410783E-03
 -1.74065697E-03  9.58968546E-04 -4.94719352E-03  0.00000000E+00  4.58158044E-03
  2.15530382E-03 -9.12696125E-03  0.00000000E+00 -2.42080642E-04  2.67244861E-03
 -2.77898394E-03  0.00000000E+00 -8.56746924E-04  0.00000000E+00  0.00000000E+00
 -1.55491935E-03 -1.36469932E-03 -8.66846800E-04 -1.87708035E-03 -1.80075313E-03
 -1.16009087E-04 -2.27501755E-04  2.53283946E-06 -8.66846800E-04 -1.87708035E-03
 -1.80075313E-03 -1.16009087E-04 -2.27501755E-04 -2.53283946E-06 -6.85740597E-04
  1.67562635E-03  4.54296255E-04  2.78541288E-04 -3.59222772E-04  0.00000000E+00
  7.05554211E-03  1.09943899E-02  8.10334738E-04 -1.26395215E-03  1.79249299E-03
  0.00000000E+00  0.00000000E+00  0.00000000E+00  0.00000000E+00  1.77014192E-02
  0.00000000E+00  0.00000000E+00  0.00000000E+00  2.68319296E-02  0.00000000E+00
  0.00000000E+00  0.00000000E+00  2.79849841E-02  0.00000000E+00  7.67218375E-04
  6.12187232E-04  0.00000000E+00  0.00000000E+00  0.00000000E+00  0.00000000E+00
  0.00000000E+00  0.00000000E+00 -1.61754464E-04  0.00000000E+00  0.00000000E+00
  0.00000000E+00  1.94218592E-04  0.00000000E+00  0.00000000E+00  0.00000000E+00
  7.37346664E-04  0.00000000E+00  8.13028672E-06 -1.90886001E-03  0.00000000E+00
  0.00000000E+00 -1.26963881E-03 -4.45041150E-03 -2.12673783E-03  1.34676331E-04
  1.31040712E-04  1.21732499E-04  1.26963881E-03  4.45041150E-03  2.12673783E-03
 -1.34676331E-04 -1.31040712E-04  1.21732499E-04  0.00000000E+00  0.00000000E+00
  0.00000000E+00  0.00000000E+00  0.00000000E+00 -1.37772234E-04  0.00000000E+00
  0.00000000E+00  0.00000000E+00  0.00000000E+00  0.00000000E+00  1.82568075E-03
Total MP2 Density                          R   N=        1830
  6.36946228E-01  5.68427539E-01  5.25597714E-01  1.01181827E-02  1.59521326E-02
  1.31691399E-01  7.27139840E-03  1.13266502E-02  1.36955401E-02  1.17586000E-01
  8.35023527E-20 -1.36867507E-19  7.39425334E-19 -4.72006062E-19  1.79288690E-01
 -1.33919135E-01 -2.28198689E-01 -4.61152663E-02 -3.06247140E-02  7.05249685E-18
  6.88801986E-01  1.03465249E-02  1.83199453E-02  1.90647011E-01  1.76942899E-02
  2.83697478E-19 -5.86542030E-02  2.81508296E-01  7.16428995E-03  1.24532615E-02
  1.65491124E-02  1.73038588E-01  5.40519608E-18 -3.67422647E-02  2.11452630E-02
  2.59700538E-01  3.39345541E-19  2.70841344E-20  8.41557159E-19 -1.63970878E-18
  2.57773519E-01  1.02133057E-17  7.88450152E-20  6.59919278E-18  3.77449391E-01
 -1.15325690E-01 -1.92584327E-01 -1.05490623E-01 -6.11353705E-02 -4.82363653E-17
  5.36276928E-01 -1.50389289E-01 -8.59263548E-02 -7.19047267E-17  5.64839792E-01
  1.59204317E-02  2.69943095E-02  1.37481601E-01  3.08103362E-02 -7.85626557E-18
 -7.90187283E-02  2.03578268E-01  4.20674009E-02 -1.24766771E-17 -1.53446341E-01
  1.71061770E-01  9.96058013E-03  1.70081111E-02  4.32247088E-02  1.29244695E-01
 -3.56643195E-17 -5.01697877E-02  6.18557860E-02  1.93389741E-01 -5.42101191E-17
 -1.02328349E-01  7.25373075E-02  1.71385489E-01 -1.74921554E-18 -3.24236550E-18
  1.70470586E-18  1.42109986E-18  2.62398559E-01  2.04472407E-17  9.83968158E-19
  1.28449243E-17  3.87966493E-01 -7.62311942E-17 -1.12122500E-17 -5.92983508E-17
  4.41666323E-01  9.48407012E-04  1.43400866E-03 -5.51726243E-03 -3.39696781E-03
  1.36455538E-18 -3.95821729E-03 -7.84336679E-03 -5.07688568E-03  2.06440786E-18
  3.96970521E-03 -4.71489345E-03 -4.01422345E-03  2.27859613E-18  3.30961279E-03
 -8.75695313E-21 -2.43092809E-20  3.44628607E-19  2.73543634E-20  7.31634065E-03
  3.29251544E-19  4.94834620E-19  2.83851731E-19  1.07509589E-02 -2.10427288E-18
  2.02572577E-20 -1.30968540E-18  1.16259192E-02  4.11189263E-20  3.52209468E-03
 -1.36837988E-19 -2.00807863E-19 -1.69433664E-20  4.34516580E-19  5.67745245E-03
  5.10883714E-19  4.71849217E-21  6.68581946E-19  8.79068701E-03  1.06040328E-19
 -3.10122511E-19  7.38579566E-19  7.98234793E-03 -4.29994304E-21  3.01357228E-04
  3.64650804E-03  1.39284538E-04  2.09636222E-04  7.95954713E-03 -7.68930399E-03
  1.37975200E-19 -6.11519825E-04  1.17275173E-02 -1.16242034E-02  2.01509469E-19
 -2.38361497E-03  6.48688397E-03 -5.02422128E-03  4.62392663E-19 -1.19764937E-04
  2.63517577E-20 -6.71620671E-20  3.72782439E-03  1.33854653E-03  2.20580421E-03
  2.49348236E-03  6.31647381E-03  3.27441916E-19 -6.33276134E-03  3.89638333E-03
  9.31926881E-03  4.74996833E-19 -7.73892965E-03  4.01221038E-03  7.34517241E-03
  4.55218306E-19 -3.70414258E-04  2.18977120E-20  3.70206496E-20 -2.63423646E-04
  3.39232343E-03  1.10999942E-03  1.74938454E-03 -6.27185428E-04 -1.50113686E-02
  6.58695683E-19 -3.97020255E-03 -6.80839217E-04 -2.30802944E-02  6.86256086E-19
  6.08038436E-03 -3.02792082E-03 -1.49890475E-02  4.85551333E-18  8.93399607E-04
  5.13934302E-21 -6.95840358E-20  1.72468529E-03 -7.82443021E-04  6.56065122E-01
  1.64154516E-03  2.59711181E-03 -1.01634451E-03 -2.53215990E-02  9.95419353E-19
 -5.79532600E-03 -1.05753035E-03 -3.92467158E-02  6.50523930E-19  1.09489303E-02
 -5.09735745E-03 -2.53660387E-02  8.80653096E-18  1.60547498E-03  7.80706454E-20
  8.70773190E-21  3.10215977E-03 -1.34647189E-03  5.61081824E-01  4.94061485E-01
 -7.29964198E-04 -1.21923298E-03 -2.85246646E-03  1.73238107E-03 -7.46497354E-19
  3.33119793E-03 -2.12367008E-03  3.54806470E-03 -4.71443043E-19  1.01416354E-02
 -1.20998425E-02 -3.30635710E-03 -4.09849721E-18  4.49837379E-04  1.12057658E-20
  4.62039225E-20 -5.65776017E-04  3.37012983E-03  4.73431726E-04  6.99591076E-04
  8.38027846E-02  7.86417067E-03  1.31252853E-02 -2.99725525E-03 -6.33305394E-02
 -9.48535523E-20 -3.80211506E-02 -4.00524013E-03 -9.56586522E-02  1.10313187E-18
 -1.21558107E-02 -1.17233896E-02 -7.75347110E-02 -6.27242748E-18  2.26871317E-03
 -8.40651763E-20 -4.26319794E-19  4.58016774E-03 -3.15795708E-03 -4.77069779E-03
 -6.80821085E-03  5.90511633E-04  5.84456727E-02  2.67740347E-19  5.23801611E-19
 -1.96236636E-18  3.53784754E-19 -1.54938724E-03 -6.13654262E-18 -1.41470713E-18
 -4.69595700E-18  5.40609490E-04  3.50385525E-17 -3.80721254E-18  3.33463169E-17
 -1.59850487E-02 -8.22096366E-19  1.38306579E-04  3.01338786E-03 -1.08134846E-18
  3.40110646E-19 -3.46187930E-18 -4.07061167E-18  7.11961938E-18  9.59086669E-19
  8.17085509E-02 -2.43527372E-03 -3.71328040E-03  2.93512513E-03  6.86313520E-02
 -1.89994046E-17  6.46700043E-03  2.89625102E-03  1.07034968E-01 -2.53582904E-17
 -3.75307334E-02  1.42358167E-02  6.85594148E-02 -5.30592329E-17 -4.62864320E-03
 -1.07856176E-18 -5.26723360E-19 -9.07467720E-03  3.70861507E-03 -8.92829218E-02
 -1.51814649E-01 -2.82709080E-03  1.46113528E-02  1.57394720E-17  4.25580187E-01
 -5.43765892E-04 -9.42006845E-04  8.44798119E-04  4.70159348E-03 -1.52501788E-18
  2.54785902E-03  4.91042537E-03  8.39396321E-03 -9.50695524E-19  9.95378145E-03
 -1.24331336E-02 -1.66534058E-03 -8.86914921E-18  2.90441217E-04  4.08555194E-20
  4.13731591E-19 -6.09172744E-04  6.37508337E-03 -1.64091348E-05  1.42575009E-05
  1.28597930E-01  1.63021493E-06  1.97524439E-17 -2.00151906E-03  2.03719868E-01
  1.32465795E-02  2.22891576E-02 -5.90503036E-03 -1.11098647E-01 -5.48558201E-18
 -6.53012895E-02 -7.65901860E-03 -1.67432432E-01 -5.70198693E-18 -1.42460463E-02
 -2.01522422E-02 -1.32410284E-01 -2.14865777E-17  5.17010883E-03 -3.15555013E-19
 -2.61987140E-19  8.82289644E-03 -5.64262087E-03 -4.50389137E-04 -9.02842360E-04
  1.02609420E-03  9.67547117E-02  1.72975554E-17  2.06733623E-03 -6.46504906E-05
  1.67459499E-01 -2.38733213E-18 -2.86852196E-18  1.06737461E-18 -3.91217250E-18
  1.86185273E-03 -1.86517526E-18  3.11789630E-18 -1.49796089E-17  7.58232093E-03
  5.75157870E-17  3.17576942E-18  5.13599824E-17 -1.84248466E-02 -1.49322123E-18
  7.04144915E-04  5.96996721E-03 -7.17387910E-19 -1.52267230E-18  1.06066631E-17
  1.12259498E-17 -3.02650787E-17 -1.23726986E-18  1.25291025E-01  2.77294203E-18
 -3.50052426E-17  2.41342151E-17  1.98466695E-01  1.40576967E-02  2.34005787E-02
 -5.88238538E-03  2.43403377E-02  1.42992617E-16 -6.34289489E-02 -9.35740038E-03
  3.88327504E-02  2.16362265E-16 -8.02241929E-02  2.95014536E-04  2.04092223E-02
  2.25763259E-16 -1.77725480E-03  5.79391510E-18  1.81703563E-18 -4.64749204E-03
  2.42504073E-03 -5.02875101E-02 -8.24557291E-02  7.26086158E-03  2.33892458E-02
 -6.45315612E-17  2.07235121E-01  1.25297902E-02  2.64866505E-02 -1.17732250E-16
  1.50068523E-01  2.58311895E-03  4.50247758E-03  1.23729992E-02  1.92394248E-02
  2.48396088E-17 -1.32390699E-02  2.06704047E-02  2.97805952E-02  3.82657693E-17
 -2.03776396E-02  8.44258880E-03  2.21864054E-02  3.61235237E-17 -1.07570306E-03
  1.14313969E-18  1.01249483E-18 -5.89749718E-04  5.52040842E-03 -2.89881989E-03
 -4.92133645E-03  7.65019719E-02 -8.43224313E-03  7.81739282E-18  1.21205496E-02
  1.22154231E-01 -1.54076249E-02 -2.88570998E-17  1.49031180E-02  8.75328308E-02
  2.48564924E-04  5.67977647E-04  4.06554908E-03 -4.76889048E-02 -8.41733496E-18
 -4.26428551E-03  6.35419010E-03 -7.21134581E-02 -1.10577843E-17  9.41770837E-03
 -2.10136557E-03 -5.94416731E-02 -2.20636224E-17  1.12696596E-03 -3.53199614E-19
  2.76273781E-19  3.54559167E-03 -2.88898437E-03 -5.65840642E-03 -9.01540545E-03
 -6.38015534E-03  4.10008227E-02  2.11139486E-17  2.11173869E-02 -1.04465214E-02
  6.91629954E-02  3.51939945E-17  2.04807883E-02 -1.34313650E-02  3.69136744E-02
  9.02931977E-18  1.37706798E-17 -1.34461304E-17 -1.66775224E-17  1.82324979E-02
 -3.91604347E-17 -1.84293820E-17 -2.90114732E-17  3.05566313E-02  7.19446488E-18
 -2.34971850E-17 -2.94412151E-18  1.87691941E-02  4.25112471E-19  9.51638882E-04
  4.70885085E-03 -1.39585335E-18  1.03772968E-18 -1.69825029E-17 -3.21167287E-17
  4.18005536E-17  3.27572283E-17  6.61291858E-02  1.00441713E-16  7.38799055E-17
  6.59192032E-17  1.05562023E-01  1.54766499E-17  4.22160908E-17  3.85667781E-17
  6.62565025E-02  2.52392616E-03  4.25828902E-03 -4.73010317E-04 -9.54427033E-03
  1.30563337E-18 -1.22900407E-02 -4.11805102E-04 -1.42463264E-02  2.25669106E-18
 -5.65894904E-03 -1.38444098E-03 -1.08217510E-02  7.39134831E-19  7.48753587E-04
  5.34144664E-20  1.87844090E-20  8.44013191E-04 -3.03989883E-05  7.94476617E-04
  1.24739143E-03  8.34515775E-03  8.23859671E-03  1.79610780E-18 -3.12611741E-03
  1.30150228E-02  1.45376547E-02 -2.04136520E-18  1.83001571E-03  5.11467217E-03
  4.22049215E-03  1.01519391E-17  5.17740599E-03 -5.94495290E-20  6.34412227E-21
 -9.76526602E-20 -3.31441534E-18  1.33557479E-04 -8.62955397E-19 -2.07599168E-19
 -6.01222572E-18  5.02032126E-04  4.43464989E-18  6.58539708E-19  1.19117156E-18
 -9.70298529E-04 -6.14345449E-20  3.07297386E-04  5.74470457E-04  1.86421191E-19
 -6.30749681E-19  3.72802026E-18  3.33035407E-18 -1.03183324E-17  1.81978508E-18
  9.77409685E-03  2.08755532E-19 -1.53736289E-17  5.56211212E-18  1.54974835E-02
 -1.05017949E-17 -1.05102139E-17  5.12150909E-18  6.79523696E-03 -7.12849683E-19
  4.33943070E-03 -8.72171082E-20 -2.00630992E-20  3.73085141E-19 -1.54539437E-18
 -1.82182952E-02 -1.38207954E-18  6.03804010E-19 -3.74695380E-18 -2.69624112E-02
  8.27095168E-18  2.11810882E-18  6.13184786E-18 -3.12557738E-02 -2.49823797E-19
 -7.67281401E-04 -1.26889789E-03  9.17500108E-20 -4.65341301E-19  3.58489419E-18
  3.13957798E-18 -7.91498282E-18  6.97980971E-19  7.47131451E-03  2.07041904E-18
 -1.17144918E-17  3.63476054E-18  1.08377326E-02 -2.39822719E-17 -1.06933767E-17
  4.38435479E-18  2.72462330E-03 -8.15699528E-19  7.52511751E-04  6.24128370E-03
  4.37822662E-03  7.41654933E-03  1.21375966E-03 -1.61830395E-02 -2.23758860E-18
 -2.13980196E-02  1.74091494E-03 -2.43469905E-02 -3.09198058E-18 -1.38807816E-02
  8.04136991E-04 -1.67750774E-02 -5.06880925E-18  8.80808988E-04 -1.10155031E-19
 -1.22224095E-19  1.68147574E-03 -1.00560507E-03  1.08562171E-03  1.62355724E-03
 -6.87475719E-03  1.35559409E-02  1.51384433E-18 -3.50454973E-03 -1.09957875E-02
  2.36137620E-02  6.00330504E-18  1.77764305E-03 -7.42874368E-03  8.80474164E-03
  5.34772670E-18  1.37513971E-03  1.82842417E-18  1.46004719E-18  7.11105026E-03
 -1.23018830E-03 -2.07815206E-03 -1.28914573E-02 -3.68110087E-03  2.31530034E-18
  5.99287143E-03 -1.90680163E-02 -5.15263095E-03  3.67186627E-18  1.43550349E-02
 -1.65007888E-02 -7.78066294E-03  2.98990495E-18  8.40994584E-04  7.40190297E-20
  1.28324161E-19 -7.13026817E-04 -9.80797959E-04  3.30256823E-04  5.57466916E-04
  6.02819464E-03  2.14299623E-03  2.00352313E-18 -1.64179980E-03  8.55324761E-03
  3.87574391E-03 -6.76380695E-19  2.37015250E-04  2.75328072E-03  4.91806538E-04
  6.79822889E-18  8.22406114E-04 -6.22497903E-19 -8.11552854E-19 -2.19047658E-04
  5.30603387E-03  1.29645235E-03  2.20866532E-03 -5.52199507E-03 -8.86220703E-03
 -1.32867303E-02 -7.23181823E-03 -7.43883735E-03 -1.22161231E-02 -1.76738549E-02
 -1.70602042E-03 -1.09022325E-02 -1.66730054E-02 -3.19202663E-02  2.64892203E-04
 -5.24197947E-04  1.75561540E-03 -5.22209662E-04  8.27187519E-04 -1.69189981E-02
 -2.81934778E-02  3.03591587E-02  2.11350460E-02  5.45480590E-02  7.26762468E-02
  4.72756709E-02  3.14339897E-02  8.45663130E-02  4.77891330E-02  2.88623622E-02
  1.50714449E-02  4.57086568E-02  5.33340272E-03  6.85827095E-03  6.58060147E-03
  9.62639322E-04  3.13144584E-03  7.71848860E-02 -1.36246899E-03 -2.23688937E-03
 -1.56135087E-02 -1.61695811E-02 -4.91740811E-02  4.13164194E-03 -2.21243514E-02
 -2.25521411E-02 -6.99818199E-02  1.74719376E-02 -2.63921747E-02 -3.08923443E-02
 -9.87169433E-02  6.64030620E-04 -2.08333255E-03  1.29180892E-03 -1.10012848E-03
  6.07319850E-04 -2.32420223E-02 -3.83252880E-02  4.52361070E-02  3.00531715E-02
  8.79752645E-02  9.59487057E-02  6.93837249E-02  4.45319509E-02  1.34604706E-01
  6.41388688E-02  4.13071377E-02  2.17907479E-02  7.05775963E-02  7.55133816E-03
  1.08702071E-02  1.35829601E-02  7.69282822E-04  5.45694262E-03  1.19048546E-01
  1.97460872E-01 -2.07790242E-03 -3.53319145E-03 -1.47048443E-02 -1.57591188E-02
 -2.57664262E-02  9.74737567E-03 -2.10234271E-02 -2.30866971E-02 -3.68394410E-02
  2.42504597E-02 -2.28267005E-02 -2.50848051E-02 -5.09686205E-02  1.24696934E-03
 -8.41874664E-04  5.34840467E-04 -1.51013498E-05 -2.25906152E-04 -5.85088790E-04
 -1.10170166E-03  2.27165645E-02  1.19971576E-02  4.05861172E-02  3.09896945E-03
  3.46977542E-02  2.03395278E-02  6.27220434E-02  5.73196057E-03  1.88509257E-02
  6.97235668E-03  3.31895749E-02  4.00072846E-03  5.13319030E-03  6.64508207E-03
  4.69292888E-04  3.66412480E-03  4.61868408E-02  8.03115612E-02  3.98815133E-02
  3.58791575E-06 -9.70641486E-06 -9.57343143E-04 -1.06468835E-03  1.48704798E-03
  1.87852547E-04 -1.26183820E-03 -1.63410535E-03  2.06160612E-03  1.80517036E-03
 -1.59990628E-03 -1.34761238E-03  3.25613777E-03  2.52645967E-04  5.43810517E-05
 -4.67484609E-06  6.91474977E-05 -2.56961821E-05  1.95706140E-03  3.22458634E-03
  2.50422314E-03 -5.97073681E-04 -3.87487594E-03 -8.18637540E-03  4.22017834E-03
 -3.79080549E-04 -5.95483166E-03 -4.11672057E-03  2.76841734E-03 -9.95884666E-04
 -3.26869086E-03  1.20878086E-04 -2.21371886E-04 -6.86931177E-04 -8.64796554E-06
  4.80311930E-04 -3.71065193E-03 -5.78380146E-03 -1.34419814E-03  1.60263176E-03
  3.98520978E-04  6.44176320E-04 -1.51022481E-04 -3.09183445E-03  6.82680782E-04
 -1.58259154E-03 -1.18799537E-04 -4.69230085E-03  1.02881646E-03 -2.49916481E-04
 -5.54218309E-04 -3.66424963E-03  1.19769902E-03  1.72256932E-04  4.93606326E-05
  1.49084176E-04  2.64751905E-04 -1.00108022E-04  1.28009686E-03  2.14600112E-03
 -1.05727917E-03  1.57991805E-03 -2.71222677E-03 -5.54643962E-03 -1.58726367E-03
  3.32431242E-03 -3.98150661E-03 -2.18933122E-03 -1.33088712E-03  1.38493082E-03
 -1.92542912E-03  5.05555236E-05 -4.76353790E-04 -7.00217154E-05  4.77591259E-04
  1.70521439E-04 -2.94043876E-03 -4.70096303E-03 -1.31745059E-03  1.73073258E-04
  1.43893670E-03  4.61908244E-04  7.83289229E-04  1.13133005E-03 -1.70112576E-04
  1.14713322E-03 -1.95674540E-03  1.60652287E-03 -4.69535056E-04  1.62425502E-03
 -2.20650662E-03  2.06786828E-03  9.42705893E-04  2.35845612E-03  9.17254138E-05
  1.41718469E-04 -2.47158523E-05  3.00782968E-04 -8.68888775E-05  3.32874972E-03
  5.47275397E-03 -3.95407698E-03 -2.25408927E-03 -3.06570184E-03 -1.36735169E-02
 -6.13502732E-03 -2.88704027E-03 -4.24476866E-03 -7.84869035E-03 -3.97952148E-03
 -1.97581493E-03 -1.90582046E-03 -2.58809633E-04 -3.73225709E-04 -4.23696145E-04
  1.64009650E-04 -5.65245987E-04 -7.43100056E-03 -1.11774811E-02 -3.21482689E-03
  2.42444003E-04  2.42065423E-04  1.90314292E-03  1.29645235E-03  2.20866532E-03
 -5.52199507E-03 -8.86220703E-03  1.32867303E-02 -7.23181823E-03 -7.43883735E-03
 -1.22161231E-02  1.76738549E-02 -1.70602042E-03 -1.09022325E-02 -1.66730054E-02
  3.19202663E-02  2.64892203E-04  5.24197947E-04 -1.75561540E-03 -5.22209662E-04
  8.27187519E-04 -1.69189981E-02 -2.81934778E-02  3.03591587E-02  2.11350460E-02
 -5.45480590E-02  7.26762468E-02  4.72756709E-02  3.14339897E-02 -8.45663130E-02
  4.77891330E-02  2.88623622E-02  1.50714449E-02 -4.57086568E-02  5.33340272E-03
 -6.85827095E-03 -6.58060147E-03  9.62639322E-04  3.13144584E-03 -7.70568090E-03
 -2.07206930E-02 -1.74067731E-02  2.09448259E-03  9.79924123E-04 -2.68592950E-03
  7.71848860E-02 -1.36246899E-03 -2.23688937E-03 -1.56135087E-02 -1.61695811E-02
  4.91740811E-02  4.13164194E-03 -2.21243514E-02 -2.25521411E-02  6.99818199E-02
  1.74719376E-02 -2.63921747E-02 -3.08923443E-02  9.87169433E-02  6.64030620E-04
  2.08333255E-03 -1.29180892E-03 -1.10012848E-03  6.07319850E-04 -2.32420223E-02
 -3.83252880E-02  4.52361070E-02  3.00531715E-02 -8.79752645E-02  9.59487057E-02
  6.93837249E-02  4.45319509E-02 -1.34604706E-01  6.41388688E-02  4.13071377E-02
  2.17907479E-02 -7.05775963E-02  7.55133816E-03 -1.08702071E-02 -1.35829601E-02
  7.69282822E-04  5.45694262E-03 -2.07206930E-02 -5.05344437E-02 -3.43206503E-02
  3.74434019E-03  1.81467786E-03 -3.27849432E-03  1.19048546E-01  1.97460872E-01
 -2.07790242E-03 -3.53319145E-03 -1.47048443E-02 -1.57591188E-02  2.57664262E-02
  9.74737567E-03 -2.10234271E-02 -2.30866971E-02  3.68394410E-02  2.42504597E-02
 -2.28267005E-02 -2.50848051E-02  5.09686205E-02  1.24696934E-03  8.41874664E-04
 -5.34840467E-04 -1.51013498E-05 -2.25906152E-04 -5.85088790E-04 -1.10170166E-03
  2.27165645E-02  1.19971576E-02 -4.05861172E-02  3.09896945E-03  3.46977542E-02
  2.03395278E-02 -6.27220434E-02  5.73196057E-03  1.88509257E-02  6.97235668E-03
 -3.31895749E-02  4.00072846E-03 -5.13319030E-03 -6.64508207E-03  4.69292888E-04
  3.66412480E-03 -1.74067731E-02 -3.43206503E-02 -1.57059127E-02  2.93504704E-03
  1.50635287E-03 -1.49023397E-04  4.61868408E-02  8.03115612E-02  3.98815133E-02
  3.58791575E-06 -9.70641486E-06 -9.57343143E-04 -1.06468835E-03 -1.48704798E-03
  1.87852547E-04 -1.26183820E-03 -1.63410535E-03 -2.06160612E-03  1.80517036E-03
 -1.59990628E-03 -1.34761238E-03 -3.25613777E-03  2.52645967E-04 -5.43810517E-05
  4.67484609E-06  6.91474977E-05 -2.56961821E-05  1.95706140E-03  3.22458634E-03
  2.50422314E-03 -5.97073681E-04  3.87487594E-03 -8.18637540E-03  4.22017834E-03
 -3.79080549E-04  5.95483166E-03 -4.11672057E-03  2.76841734E-03 -9.95884666E-04
  3.26869086E-03  1.20878086E-04  2.21371886E-04  6.86931177E-04 -8.64796554E-06
  4.80311930E-04  2.09448259E-03  3.74434019E-03  2.93504704E-03  7.19458709E-05
  2.66238149E-05  1.30210977E-04 -3.71065193E-03 -5.78380146E-03 -1.34419814E-03
  1.60263176E-03  3.98520978E-04  6.44176320E-04 -1.51022481E-04 -3.09183445E-03
 -6.82680782E-04 -1.58259154E-03 -1.18799537E-04 -4.69230085E-03 -1.02881646E-03
 -2.49916481E-04 -5.54218309E-04 -3.66424963E-03 -1.19769902E-03  1.72256932E-04
 -4.93606326E-05 -1.49084176E-04  2.64751905E-04 -1.00108022E-04  1.28009686E-03
  2.14600112E-03 -1.05727917E-03  1.57991805E-03  2.71222677E-03 -5.54643962E-03
 -1.58726367E-03  3.32431242E-03  3.98150661E-03 -2.18933122E-03 -1.33088712E-03
  1.38493082E-03  1.92542912E-03  5.05555236E-05  4.76353790E-04  7.00217154E-05
  4.77591259E-04  1.70521439E-04  9.79924123E-04  1.81467786E-03  1.50635287E-03
  2.66238149E-05 -2.85405343E-05  1.53754319E-04 -2.94043876E-03 -4.70096303E-03
 -1.31745059E-03  1.73073258E-04  1.43893670E-03 -4.61908244E-04 -7.83289229E-04
 -1.13133005E-03  1.70112576E-04  1.14713322E-03  1.95674540E-03 -1.60652287E-03
  4.69535056E-04  1.62425502E-03  2.20650662E-03 -2.06786828E-03 -9.42705893E-04
  2.35845612E-03 -9.17254138E-05  1.41718469E-04 -2.47158523E-05 -3.00782968E-04
  8.68888775E-05 -3.32874972E-03 -5.47275397E-03  3.95407698E-03  2.25408927E-03
 -3.06570184E-03  1.36735169E-02  6.13502732E-03  2.88704027E-03 -4.24476866E-03
  7.84869035E-03  3.97952148E-03  1.97581493E-03 -1.90582046E-03  2.58809633E-04
 -3.73225709E-04 -4.23696145E-04 -1.64009650E-04  5.65245987E-04  2.68592950E-03
  3.27849432E-03  1.49023397E-04 -1.30210977E-04 -1.53754319E-04 -6.17492967E-04
  7.43100056E-03  1.11774811E-02  3.21482689E-03 -2.42444003E-04 -2.42065423E-04
  1.90314292E-03  3.17202364E-03  5.38177721E-03  9.24832625E-03 -5.09924988E-03
  1.18240214E-18 -1.62687280E-02  1.18594936E-02 -7.99330644E-03  2.15165817E-18
 -2.62012282E-02  1.83707457E-02 -2.33157387E-03 -1.31187172E-18 -7.58048779E-04
 -3.92661106E-20 -1.56392024E-19  4.86394476E-04 -2.78882307E-03 -1.71329541E-02
 -2.85584952E-02 -6.52552488E-02  1.63587460E-02 -3.99039680E-18  7.51739976E-02
 -1.01178359E-01  2.33897827E-02  2.44242124E-17  3.71408591E-02 -6.26766972E-02
  2.04094147E-02 -9.49549451E-18 -5.28757638E-03  9.15856746E-18  6.76986270E-18
  8.58325681E-03 -5.35065832E-03 -6.80664199E-03 -1.29601305E-02 -1.64486406E-02
 -3.81354876E-03  1.83256884E-04  1.20330687E-04 -6.80664199E-03 -1.29601305E-02
 -1.64486406E-02 -3.81354876E-03  1.83256884E-04 -1.20330687E-04  7.73614207E-02
  6.78131446E-03  1.16486097E-02  3.77170226E-02  5.76658757E-03 -1.46023229E-17
 -3.57094844E-02  5.29396642E-02  7.53901658E-03 -2.15405516E-17 -6.76476112E-02
  5.76952690E-02  1.92516529E-02 -2.85753933E-17 -2.78472076E-03 -6.87613781E-19
 -4.20166359E-19  1.43320179E-03 -2.85198515E-03 -2.58038770E-02 -4.26453765E-02
 -1.00978146E-01  1.51945470E-02  1.30019383E-18  1.09956551E-01 -1.54348603E-01
  1.84924981E-02  5.24970603E-17  5.24719866E-02 -9.27737004E-02  2.50633674E-02
 -1.73665364E-17 -9.56585438E-03  1.55282567E-17  1.35026416E-17  1.11390387E-02
 -1.07893523E-02 -1.55936581E-02 -2.96495275E-02 -3.14310359E-02 -5.84476610E-03
 -7.04243692E-05  6.50786914E-04 -1.55936581E-02 -2.96495275E-02 -3.14310359E-02
 -5.84476610E-03 -7.04243692E-05 -6.50786914E-04  1.16320844E-01  1.88080013E-01
  2.41304151E-03  4.13675029E-03  1.70966109E-02 -4.43296988E-03 -9.51595000E-18
 -1.24087331E-02  2.42459838E-02 -7.45584764E-03 -1.38627343E-17 -2.31657515E-02
  2.43877629E-02  1.36888165E-03 -1.85770767E-17 -8.12845151E-04 -3.51920184E-19
  3.90457208E-19  1.69991485E-03 -1.49167981E-03 -2.13010805E-03 -3.72552885E-03
 -4.04793617E-02  5.32115061E-03  1.61220958E-17  1.12620681E-02 -6.25435016E-02
  8.35057788E-03  4.58115511E-17  1.16464718E-03 -3.91885116E-02  8.90555998E-03
 -3.13842033E-19 -3.61032465E-03  7.96272229E-18  7.17923564E-18  5.07842024E-03
 -4.56770764E-03 -1.29871257E-02 -2.14922907E-02 -1.34268393E-02 -1.70759344E-03
  5.00987163E-04  1.57330172E-03 -1.29871257E-02 -2.14922907E-02 -1.34268393E-02
 -1.70759344E-03  5.00987163E-04 -1.57330172E-03  3.90181836E-02  6.43799228E-02
  2.64074452E-02  5.04699820E-05  8.96872383E-05  2.21805501E-03  2.35000172E-03
 -2.88503614E-18 -6.01038074E-04  3.13039958E-03  3.57231391E-03 -4.13365885E-18
 -3.29799159E-03  3.57405573E-03  3.02303319E-03 -6.14400913E-18 -3.45957864E-04
 -1.28062585E-19  2.21198110E-20 -2.40012582E-04  4.05459105E-05 -4.15249959E-03
 -6.82811086E-03 -5.77543508E-03  1.13386310E-03  3.23289427E-18  1.72477059E-02
 -8.30226846E-03  7.98046795E-04  7.65407949E-18  8.58523861E-03 -4.25856863E-03
  2.02512859E-03  4.12925969E-18 -6.34846633E-04  1.35305239E-18  1.35241744E-18
  2.81306833E-04 -7.41328928E-04  1.38024451E-03  1.60688137E-03 -1.47369762E-03
 -5.38774460E-04 -2.28597359E-04 -4.62685316E-04  1.38024451E-03  1.60688137E-03
 -1.47369762E-03 -5.38774460E-04 -2.28597359E-04  4.62685316E-04  8.71282551E-03
  1.33907579E-02  3.30814432E-03  2.11844330E-03  7.54556026E-05  1.17794342E-04
 -1.56659490E-03 -3.18685626E-03  4.35067529E-19 -1.51112651E-04 -2.36210936E-03
 -4.70290038E-03  6.18720368E-19  1.77603253E-03 -2.20052482E-03 -4.29777676E-03
  1.02980698E-18  2.02378486E-04  1.08604057E-20 -7.44938610E-20  1.50211556E-04
 -2.81124442E-04  8.08018179E-04  1.36491292E-03  2.15450523E-03  1.96607141E-03
 -1.74739362E-18 -3.61447743E-03  3.06358091E-03  3.88434728E-03 -3.86520772E-18
 -8.40491662E-04  9.93363839E-04  1.52820566E-03 -2.39215070E-19  6.04619424E-04
 -4.85147325E-19 -4.54474956E-19  1.50444132E-04  1.92052083E-05  8.01050890E-04
  1.29009448E-03  1.12748310E-03  1.62411277E-04  4.92792979E-06  3.21940814E-05
  8.01050890E-04  1.29009448E-03  1.12748310E-03  1.62411277E-04  4.92792979E-06
 -3.21940814E-05 -2.04246180E-03 -3.87083974E-03 -1.06857966E-03 -2.60874075E-04
  1.35069564E-03 -5.40341010E-19 -8.07825278E-19 -7.08517090E-20  2.04290722E-19
 -1.62812784E-03  1.74106427E-18 -1.82965211E-21 -9.86511713E-20 -2.23342442E-03
  4.49260588E-18 -3.75536623E-20  2.89267133E-18 -3.79129184E-03 -6.24375080E-20
  1.00608332E-05 -4.63425479E-06 -2.15582625E-20 -2.59233618E-20  2.54093973E-19
  1.22087789E-18 -4.84230947E-19 -1.29966792E-18  4.69627205E-03 -4.51947826E-18
 -2.75636392E-19 -9.43168698E-19  7.65894881E-03 -8.77082495E-18 -6.82502691E-19
  3.93922118E-19  4.54882356E-03 -1.71587981E-19  1.65008861E-04  8.52265168E-04
 -9.36196740E-20  1.16784503E-21  3.44680562E-03  5.68080979E-03  2.78389119E-03
 -1.45506700E-04 -1.25014605E-04 -1.69737840E-04 -3.44680562E-03 -5.68080979E-03
 -2.78389119E-03  1.45506700E-04  1.25014605E-04 -1.69737840E-04 -8.62368215E-19
 -5.02941006E-19  1.29888226E-18  9.14125912E-21 -1.20038322E-19  1.45215947E-03
 -1.36607777E-02 -2.27291400E-02  7.95936114E-02 -2.33221270E-02 -1.50506938E-19
  6.26969741E-02  1.18901031E-01 -3.64743764E-02 -2.02074752E-19  1.10908199E-02
  8.20171958E-02 -8.23153108E-03  5.74057889E-19 -4.05356465E-03  2.20238820E-19
 -5.94385143E-20  8.08578220E-03 -1.25902530E-03  2.79253938E-03  4.92454419E-03
 -5.38790435E-03  9.95411716E-03 -9.97520558E-19 -1.47256134E-02 -5.57537142E-03
  1.70384887E-02  5.58979863E-18 -2.07856865E-02 -8.56862515E-04  1.66596867E-02
 -1.10011865E-17  1.33401069E-04  1.40748296E-18  1.23742950E-18  2.50781406E-03
 -7.80366282E-03 -3.79576442E-03 -8.18494327E-03 -6.41890142E-03 -5.60400926E-04
  4.48881073E-04  7.13618436E-04 -3.79576442E-03 -8.18494327E-03 -6.41890142E-03
 -5.60400926E-04  4.48881073E-04 -7.13618436E-04  8.94066673E-03  2.64378196E-02
  1.42942996E-02  1.20768696E-03 -2.87762376E-04  2.60120534E-19  7.87740694E-02
 -4.24639110E-03 -6.75794756E-03  1.28852009E-01 -2.36611542E-02  1.37235791E-17
  1.67278204E-02  1.90568786E-01 -3.81527729E-02  2.04676441E-17 -6.54302884E-02
  1.38818726E-01  4.45510314E-03  2.40525448E-17 -7.74789823E-03  9.12706685E-19
  2.27949471E-20  1.23227434E-02 -7.08551486E-04  3.82037193E-03  6.55347626E-03
 -1.44518573E-02  1.47854627E-02 -1.01214732E-17 -1.78553999E-02 -1.76749399E-02
  2.36358300E-02 -2.57131228E-18 -2.20079438E-02 -2.46336904E-03  2.26242660E-02
 -2.37083797E-17 -4.97517652E-04  1.71582979E-18  8.78190666E-20  5.61899536E-03
 -1.37977269E-02 -8.09368048E-03 -1.86896996E-02 -1.49846196E-02 -1.41468127E-03
  7.89369369E-04  1.56352953E-03 -8.09368048E-03 -1.86896996E-02 -1.49846196E-02
 -1.41468127E-03  7.89369369E-04 -1.56352953E-03  1.99618366E-02  5.44618408E-02
  2.73299916E-02  2.33146230E-03 -9.90443955E-04 -3.85458362E-19  1.11955773E-01
  1.79798685E-01  1.61792296E-03  2.74398988E-03  2.64580827E-02 -2.00462245E-02
 -2.60150202E-17 -8.60523524E-03  3.95212149E-02 -3.13041026E-02 -3.83795763E-17
 -1.61542320E-02  3.09279126E-02 -1.73844622E-02 -4.68096114E-17 -1.30101998E-04
 -1.00831569E-18  3.95516700E-20  3.32939640E-03 -1.33445093E-03  1.72692464E-03
  3.01067329E-03 -1.20477881E-02  1.49599877E-02  2.44119078E-17 -8.47408737E-03
 -1.82188605E-02  2.62254632E-02  4.55022687E-17 -4.95629389E-03 -1.30865967E-02
  1.50344369E-02  1.81260092E-17  1.16288676E-03  5.63395896E-18  7.09250829E-18
  4.88904107E-03 -3.11041457E-03 -2.07502262E-03 -4.62737613E-03 -3.27147450E-03
 -5.34813659E-04  7.25343592E-04  6.04834796E-04 -2.07502262E-03 -4.62737613E-03
 -3.27147450E-03 -5.34813659E-04  7.25343592E-04 -6.04834796E-04  1.44220824E-02
  2.50399876E-02  1.18287058E-02  1.07861342E-03  2.44601049E-04  1.67656730E-18
  2.53544720E-02  3.93357480E-02  1.44448086E-02  4.52194957E-03  7.61613123E-03
 -1.27857468E-02  6.34437405E-03 -2.20276242E-18 -2.10430522E-02 -1.87829082E-02
  9.64552138E-03 -3.36222287E-18 -1.13433542E-02 -1.03830621E-02  4.92591911E-03
 -3.68297221E-18  1.08663278E-03 -1.39753352E-19 -6.77266611E-20 -1.51830330E-03
  7.13743592E-04 -6.76086259E-04 -1.14564193E-03  7.46463316E-04 -2.14235349E-03
  1.40643960E-19  3.20136547E-03  9.12525654E-04 -3.22034384E-03 -1.34055895E-18
  5.08724393E-03  5.45009529E-04 -3.56236274E-03  2.06045689E-18  2.18651799E-04
 -3.24495167E-19 -2.27854918E-20 -2.52615311E-04  9.72515682E-04  4.85661604E-04
  6.60092928E-04  5.54236450E-04  9.86937170E-05 -6.88478398E-05 -1.86105033E-08
  4.85661604E-04  6.60092928E-04  5.54236450E-04  9.86937170E-05 -6.88478398E-05
  1.86105033E-08 -1.13790742E-03 -3.57814634E-03 -2.17110919E-03 -1.18367707E-04
  2.43658268E-05 -5.97885642E-20 -1.47519659E-02 -2.05650798E-02 -4.04283478E-03
  3.77274193E-03 -2.00266204E-04 -3.55505687E-04  1.15415221E-02  8.78348974E-03
  2.34695458E-18  1.00056314E-03  1.70409081E-02  1.32025672E-02  3.37982449E-18
 -9.54722671E-03  1.33950081E-02  1.34708189E-02  4.49578162E-18 -1.14796611E-03
  1.30138074E-19  1.63601253E-20  5.80165079E-04  1.35057262E-03 -1.18721591E-03
 -1.99663138E-03  1.24829946E-03 -5.51387123E-03 -2.48824048E-18  5.39415982E-03
  2.83617480E-03 -9.82035427E-03 -4.25712526E-18  1.01105749E-03  4.69108467E-03
 -3.66527236E-03 -4.43522590E-18 -8.06026090E-04 -7.08118055E-19 -6.84385039E-19
 -1.36627741E-03 -1.72945401E-03 -7.41633935E-04 -2.07599408E-03 -2.23181144E-03
 -2.28684307E-04 -2.74320305E-04  5.68071576E-05 -7.41633935E-04 -2.07599408E-03
 -2.23181144E-03 -2.28684307E-04 -2.74320305E-04 -5.68071576E-05 -9.80195650E-04
  1.89809061E-03  6.08045551E-04  2.62207849E-04 -3.87362484E-04 -1.30539907E-19
  6.62024727E-03  1.17904298E-02  3.27609355E-04 -9.22700392E-04  3.00789658E-03
  2.53798178E-19  3.51563669E-19  4.07884701E-19 -2.30701735E-19  1.83391580E-02
 -2.08380529E-19  5.39517756E-19  2.80306642E-19  2.72632202E-02 -5.93098688E-18
 -4.87134165E-19 -3.95110609E-18  3.08145829E-02  1.30949118E-19  1.79799725E-03
  4.07371624E-04  3.60782632E-20  5.51306762E-20 -2.02681251E-19 -4.65308539E-19
  4.20408080E-19  5.48686770E-19 -5.65184763E-05 -1.83162131E-19  6.60268307E-19
  3.13882735E-19  4.15329094E-04  1.59709038E-17  3.08481307E-18 -4.71250164E-19
  2.11605020E-03  2.67446854E-19  1.44127087E-04 -1.95681573E-03 -1.42658821E-19
  2.57981599E-19 -1.53700168E-03 -5.72895227E-03 -2.82714298E-03  1.50395376E-04
  5.11814046E-05  1.80220949E-04  1.53700168E-03  5.72895227E-03  2.82714298E-03
 -1.50395376E-04 -5.11814046E-05  1.80220949E-04  1.96673535E-19 -1.43888702E-18
 -1.09405021E-18 -2.40266398E-19  5.30711735E-20 -1.12625132E-04  1.37176422E-19
  1.69957684E-18 -2.59789016E-18 -2.49355971E-19  2.54219132E-19  3.48915735E-03
QEq coupling tensors                       R   N=          36
 -6.40930044E-01  7.47498155E-01 -1.39252190E+00 -6.44102827E-15 -1.94601280E-14
  2.03345194E+00  2.00222123E-01  1.25913978E-02 -3.61908879E-01  3.30568906E-14
  3.07254222E-14  1.61686756E-01  6.73777963E-02 -7.18573266E-02  7.82267373E-02
 -1.68252888E-01 -1.36021235E-01 -1.45604534E-01  6.73777963E-02 -7.18573266E-02
  7.82267373E-02  1.68252888E-01  1.36021235E-01 -1.45604534E-01 -2.73655053E-01
  1.25560669E-01  1.08531240E-01 -1.38777878E-17 -8.67361738E-19  1.65123813E-01
 -3.98362470E-01  1.96457059E-01  1.33034468E-01  1.30104261E-18 -6.93889390E-18
  2.65328002E-01
Mulliken Charges                           R   N=           6
 -4.13058790E-01 -8.35058514E-02  8.07818346E-02  8.07818346E-02  1.03627211E-01
  2.31373762E-01
ONIOM Charges                              I   N=          16
           0           0           0           0           0           0
           0           0           0           0           0           0
           0           0           0           0
ONIOM Multiplicities                       I   N=          16
           1           0           0           0           0           0
           0           0           0           0           0           0
           0           0           0           0
Atom Layers                                I   N=           6
           1           1           1           1           1           1
Atom Modifiers                             I   N=           6
           0           0           0           0           0           0
Force Field                                I                0
Int Atom Modified Types                    I   N=           6
           0           0           0           0           0           0
Link Atoms                                 I   N=           6
           0           0           0           0           0           0
Atom Modified MM Charges                   R   N=           6
  0.00000000E+00  0.00000000E+00  0.00000000E+00  0.00000000E+00  0.00000000E+00
  0.00000000E+00
Link Distances                             R   N=          24
  0.00000000E+00  0.00000000E+00  0.00000000E+00  0.00000000E+00  0.00000000E+00
  0.00000000E+00  0.00000000E+00  0.00000000E+00  0.00000000E+00  0.00000000E+00
  0.00000000E+00  0.00000000E+00  0.00000000E+00  0.00000000E+00  0.00000000E+00
  0.00000000E+00  0.00000000E+00  0.00000000E+00  0.00000000E+00  0.00000000E+00
  0.00000000E+00  0.00000000E+00  0.00000000E+00  0.00000000E+00
Cartesian Gradient                         R   N=          18
  0.00000000E+00  0.00000000E+00  0.00000000E+00  0.00000000E+00  0.00000000E+00
  0.00000000E+00  0.00000000E+00  0.00000000E+00  0.00000000E+00  0.00000000E+00
  0.00000000E+00  0.00000000E+00  0.00000000E+00  0.00000000E+00  0.00000000E+00
  0.00000000E+00  0.00000000E+00  0.00000000E+00
Dipole Moment                              R   N=           3
  5.68105106E-01  3.91373830E-01 -1.10344676E-16
Quadrupole Moment                          R   N=           6
  8.85064883E-01 -2.77147323E-01 -6.07917559E-01 -1.56821848E+00  1.01643954E-19
 -2.21231453E-16
