 Entering Gaussian System, Link 0=g09
 Input=MeOH-opt.com
 Output=MeOH-opt.log
 Initial command:
 /opt/g09gh/gaussian/g09/l1.exe /scratch/liuchw/Gau-3529512.inp -scrdir=/scratch/liuchw/
 Entering Link 1 = /opt/g09gh/gaussian/g09/l1.exe PID=   3529513.
  
 Copyright (c) 1988,1990,1992,1993,1995,1998,2003,2009, Gaussian, Inc.
                  All Rights Reserved.
  
 This is part of the Gaussian(R) 09 program.  It is based on
 the Gaussian(R) 03 system (copyright 2003, Gaussian, Inc.),
 the Gaussian(R) 98 system (copyright 1998, Gaussian, Inc.),
 the Gaussian(R) 94 system (copyright 1995, Gaussian, Inc.),
 the Gaussian 92(TM) system (copyright 1992, Gaussian, Inc.),
 the Gaussian 90(TM) system (copyright 1990, Gaussian, Inc.),
 the Gaussian 88(TM) system (copyright 1988, Gaussian, Inc.),
 the Gaussian 86(TM) system (copyright 1986, Carnegie Mellon
 University), and the Gaussian 82(TM) system (copyright 1983,
 Carnegie Mellon University). Gaussian is a federally registered
 trademark of Gaussian, Inc.
  
 This software contains proprietary and confidential information,
 including trade secrets, belonging to Gaussian, Inc.
  
 This software is provided under written license and may be
 used, copied, transmitted, or stored only in accord with that
 written license.
  
 The following legend is applicable only to US Government
 contracts under FAR:
  
                    RESTRICTED RIGHTS LEGEND
  
 Use, reproduction and disclosure by the US Government is
 subject to restrictions as set forth in subparagraphs (a)
 and (c) of the Commercial Computer Software - Restricted
 Rights clause in FAR 52.227-19.
  
 Gaussian, Inc.
 340 Quinnipiac St., Bldg. 40, Wallingford CT 06492
  
  
 ---------------------------------------------------------------
 Warning -- This program may not be used in any manner that
 competes with the business of Gaussian, Inc. or will provide
 assistance to any competitor of Gaussian, Inc.  The licensee
 of this program is prohibited from giving any competitor of
 Gaussian, Inc. access to this program.  By using this program,
 the user acknowledges that Gaussian, Inc. is engaged in the
 business of creating and licensing software in the field of
 computational chemistry and represents and warrants to the
 licensee that it is not a competitor of Gaussian, Inc. and that
 it will not use this program in any manner prohibited above.
 ---------------------------------------------------------------
  

 Cite this work as:
 Gaussian 09, Revision A.02,
 M. J. Frisch, G. W. Trucks, H. B. Schlegel, G. E. Scuseria, 
 M. A. Robb, J. R. Cheeseman, G. Scalmani, V. Barone, B. Mennucci, 
 G. A. Petersson, H. Nakatsuji, M. Caricato, X. Li, H. P. Hratchian, 
 A. F. Izmaylov, J. Bloino, G. Zheng, J. L. Sonnenberg, M. Hada, 
 M. Ehara, K. Toyota, R. Fukuda, J. Hasegawa, M. Ishida, T. Nakajima, 
 Y. Honda, O. Kitao, H. Nakai, T. Vreven, J. A. Montgomery, Jr., 
 J. E. Peralta, F. Ogliaro, M. Bearpark, J. J. Heyd, E. Brothers, 
 K. N. Kudin, V. N. Staroverov, R. Kobayashi, J. Normand, 
 K. Raghavachari, A. Rendell, J. C. Burant, S. S. Iyengar, J. Tomasi, 
 M. Cossi, N. Rega, J. M. Millam, M. Klene, J. E. Knox, J. B. Cross, 
 V. Bakken, C. Adamo, J. Jaramillo, R. Gomperts, R. E. Stratmann, 
 O. Yazyev, A. J. Austin, R. Cammi, C. Pomelli, J. W. Ochterski, 
 R. L. Martin, K. Morokuma, V. G. Zakrzewski, G. A. Voth, 
 P. Salvador, J. J. Dannenberg, S. Dapprich, A. D. Daniels, 
 O. Farkas, J. B. Foresman, J. V. Ortiz, J. Cioslowski, 
 and D. J. Fox, Gaussian, Inc., Wallingford CT, 2009.
 
 ******************************************
 Gaussian 09:  EM64L-G09RevA.02 11-Jun-2009
                19-May-2022 
 ******************************************
 %chk=MeOH-opt.chk
 %Mem=200GB
 %Nproc=10
 Will use up to   10 processors via shared memory.
 ---------------------------------------------------------
 #P MP2/6-31G* IOP(5/13=1) OPT(MaxCycle=200) MaxDisk=500GB
 ---------------------------------------------------------
 1/6=200,18=20,19=15,38=1/1,3;
 2/9=110,12=2,17=6,18=5,40=1/2;
 3/5=1,6=6,7=1,11=9,16=1,25=1,30=1,71=1/1,2,3;
 4//1;
 5/5=2,13=1,38=5/2;
 8/6=4,10=2/1;
 9/15=2,16=-3/6;
 10/5=1/2;
 6/7=2,8=2,9=2,10=2/1;
 7/12=2/1,2,3,16;
 1/6=200,18=20,19=15/3(2);
 2/9=110/2;
 99//99;
 2/9=110/2;
 3/5=1,6=6,7=1,11=9,16=1,25=1,30=1,71=1/1,2,3;
 4/5=5,16=3/1;
 5/5=2,13=1,38=5/2;
 8/6=4,10=2/1;
 9/15=2,16=-3/6;
 10/5=1/2;
 7/12=2/1,2,3,16;
 1/6=200,18=20,19=15/3(-8);
 2/9=110/2;
 6/7=2,8=2,9=2,10=2/1;
 99//99;
 Leave Link    1 at Thu May 19 11:19:08 2022, MaxMem=26843545600 cpu:       0.5
 (Enter /opt/g09gh/gaussian/g09/l101.exe)
 ---------------------------------
 Generated by TIPTOP/IP_ParmGen.py
 ---------------------------------
 Symbolic Z-matrix:
 Charge =  0 Multiplicity = 1
 O                     0.9922    0.0739    0.0724 
 C                     0.5255    0.0337   -1.2636 
 H                     0.8853    0.9134   -1.8029 
 H                     0.8853   -0.8769   -1.749 
 H                    -0.567     0.0338   -1.2586 
 H                     1.9639    0.0728    0.0358 
 
 NAtoms=      6 NQM=      6 NQMF=      0 NMic=      0 NMicF=      0 NTot=      6.
                    Isotopes and Nuclear Properties:
 (Nuclear quadrupole moments (NQMom) in fm**2, nuclear magnetic moments (NMagM)
  in nuclear magnetons)

  Atom         1           2           3           4           5           6
 IAtWgt=          16          12           1           1           1           1
 AtmWgt=  15.9949146  12.0000000   1.0078250   1.0078250   1.0078250   1.0078250
 NucSpn=           0           0           1           1           1           1
 AtZEff=   0.0000000   0.0000000   0.0000000   0.0000000   0.0000000   0.0000000
 NQMom=    0.0000000   0.0000000   0.0000000   0.0000000   0.0000000   0.0000000
 NMagM=    0.0000000   0.0000000   2.7928460   2.7928460   2.7928460   2.7928460
 Leave Link  101 at Thu May 19 11:19:08 2022, MaxMem=26843545600 cpu:       0.7
 (Enter /opt/g09gh/gaussian/g09/l103.exe)

 GradGradGradGradGradGradGradGradGradGradGradGradGradGradGradGradGradGrad
 Berny optimization.
 Initialization pass.
                           ----------------------------
                           !    Initial Parameters    !
                           ! (Angstroms and Degrees)  !
 --------------------------                            --------------------------
 ! Name  Definition              Value          Derivative Info.                !
 --------------------------------------------------------------------------------
 ! R1    R(1,2)                  1.4157         estimate D2E/DX2                !
 ! R2    R(1,6)                  0.9724         estimate D2E/DX2                !
 ! R3    R(2,3)                  1.0928         estimate D2E/DX2                !
 ! R4    R(2,4)                  1.0928         estimate D2E/DX2                !
 ! R5    R(2,5)                  1.0925         estimate D2E/DX2                !
 ! A1    A(2,1,6)              107.0895         estimate D2E/DX2                !
 ! A2    A(1,2,3)              109.5311         estimate D2E/DX2                !
 ! A3    A(1,2,4)              109.5287         estimate D2E/DX2                !
 ! A4    A(1,2,5)              108.9853         estimate D2E/DX2                !
 ! A5    A(3,2,4)              110.0703         estimate D2E/DX2                !
 ! A6    A(3,2,5)              109.3558         estimate D2E/DX2                !
 ! A7    A(4,2,5)              109.3504         estimate D2E/DX2                !
 ! D1    D(6,1,2,3)            -60.4029         estimate D2E/DX2                !
 ! D2    D(6,1,2,4)             60.4053         estimate D2E/DX2                !
 ! D3    D(6,1,2,5)            179.9973         estimate D2E/DX2                !
 --------------------------------------------------------------------------------
 Trust Radius=3.00D-01 FncErr=1.00D-07 GrdErr=1.00D-07
 Number of steps in this run= 100 maximum allowed number of steps= 100.
 GradGradGradGradGradGradGradGradGradGradGradGradGradGradGradGradGradGrad

 Leave Link  103 at Thu May 19 11:19:08 2022, MaxMem=26843545600 cpu:       0.1
 (Enter /opt/g09gh/gaussian/g09/l202.exe)
                          Input orientation:                          
 ---------------------------------------------------------------------
 Center     Atomic      Atomic             Coordinates (Angstroms)
 Number     Number       Type             X           Y           Z
 ---------------------------------------------------------------------
      1          8           0        0.992200    0.073900    0.072400
      2          6           0        0.525500    0.033700   -1.263600
      3          1           0        0.885300    0.913400   -1.802900
      4          1           0        0.885300   -0.876900   -1.749000
      5          1           0       -0.567000    0.033800   -1.258600
      6          1           0        1.963900    0.072800    0.035800
 ---------------------------------------------------------------------
                    Distance matrix (angstroms):
                    1          2          3          4          5
     1  O    0.000000
     2  C    1.415740   0.000000
     3  H    2.057410   1.092782   0.000000
     4  H    2.057413   1.092823   1.791111   0.000000
     5  H    2.050433   1.092511   1.783013   1.782987   0.000000
     6  H    0.972390   1.938805   2.291463   2.291467   2.842965
                    6
     6  H    0.000000
 Stoichiometry    CH4O
 Framework group  C1[X(CH4O)]
 Deg. of freedom    12
 Full point group                 C1      NOp   1
 Largest Abelian subgroup         C1      NOp   1
 Largest concise Abelian subgroup C1      NOp   1
                         Standard orientation:                         
 ---------------------------------------------------------------------
 Center     Atomic      Atomic             Coordinates (Angstroms)
 Number     Number       Type             X           Y           Z
 ---------------------------------------------------------------------
      1          8           0        0.742705    0.130265   -0.000003
      2          6           0       -0.665050   -0.019885   -0.000012
      3          1           0       -0.974370   -0.564460   -0.895519
      4          1           0       -0.974360   -0.564386    0.895592
      5          1           0       -1.128034    0.969674    0.000000
      6          1           0        1.125422   -0.763642    0.000030
 ---------------------------------------------------------------------
 Rotational constants (GHZ):    126.1800031     25.0909515     24.1647160
 Leave Link  202 at Thu May 19 11:19:08 2022, MaxMem=26843545600 cpu:       0.0
 (Enter /opt/g09gh/gaussian/g09/l301.exe)
 Standard basis: 6-31G(d) (6D, 7F)
 Ernie: Thresh=  0.10000D-02 Tol=  0.10000D-05 Strict=F.
 There are    38 symmetry adapted basis functions of A   symmetry.
 Integral buffers will be    131072 words long.
 Raffenetti 1 integral format.
 Two-electron integral symmetry is turned on.
    38 basis functions,    72 primitive gaussians,    38 cartesian basis functions
     9 alpha electrons        9 beta electrons
       nuclear repulsion energy        40.3667943168 Hartrees.
 IExCor=    0 DFT=F Ex=HF Corr=None ExCW=0 ScaHFX=  1.000000
 ScaDFX=  1.000000  1.000000  1.000000  1.000000 ScalE2=  1.000000  1.000000
 IRadAn=      0 IRanWt=     -1 IRanGd=            0 ICorTp=0
 NAtoms=    6 NActive=    6 NUniq=    6 SFac= 7.50D-01 NAtFMM=   80 NAOKFM=F Big=F
 Leave Link  301 at Thu May 19 11:19:08 2022, MaxMem=26843545600 cpu:       0.5
 (Enter /opt/g09gh/gaussian/g09/l302.exe)
 NPDir=0 NMtPBC=     1 NCelOv=     1 NCel=       1 NClECP=     1 NCelD=      1
         NCelK=      1 NCelE2=     1 NClLst=     1 CellRange=     0.0.
 One-electron integrals computed using PRISM.
 NBasis=    38 RedAO= T  NBF=    38
 NBsUse=    38 1.00D-06 NBFU=    38
 Leave Link  302 at Thu May 19 11:19:09 2022, MaxMem=26843545600 cpu:       1.9
 (Enter /opt/g09gh/gaussian/g09/l303.exe)
 DipDrv:  MaxL=1.
 Leave Link  303 at Thu May 19 11:19:09 2022, MaxMem=26843545600 cpu:       0.2
 (Enter /opt/g09gh/gaussian/g09/l401.exe)
 Harris functional with IExCor=  205 diagonalized for initial guess.
 ExpMin= 1.61D-01 ExpMax= 5.48D+03 ExpMxC= 8.25D+02 IAcc=1 IRadAn=         1 AccDes= 0.00D+00
 HarFok:  IExCor=  205 AccDes= 0.00D+00 IRadAn=         1 IDoV= 1
 ScaDFX=  1.000000  1.000000  1.000000  1.000000
 FoFCou: FMM=F IPFlag=           0 FMFlag=      100000 FMFlg1=           0
         NFxFlg=           0 DoJE=T BraDBF=F KetDBF=T FulRan=T
         Omega=  0.000000  0.000000  1.000000  0.000000  0.000000 ICntrl=     500 IOpCl=  0
         NMat0=    1 NMatS0=    1 NMatT0=    0 NMatD0=    1 NMtDS0=    0 NMtDT0=    0
         I1Cent=           4 NGrid=           0.
 Petite list used in FoFCou.
 Harris En= -115.211765464448    
 Initial guess orbital symmetries:
       Occupied  (A) (A) (A) (A) (A) (A) (A) (A) (A)
       Virtual   (A) (A) (A) (A) (A) (A) (A) (A) (A) (A) (A) (A)
                 (A) (A) (A) (A) (A) (A) (A) (A) (A) (A) (A) (A)
                 (A) (A) (A) (A) (A)
 The electronic state of the initial guess is 1-A.
 Leave Link  401 at Thu May 19 11:19:09 2022, MaxMem=26843545600 cpu:       2.3
 (Enter /opt/g09gh/gaussian/g09/l502.exe)
 Closed shell SCF:
 Requested convergence on RMS density matrix=1.00D-08 within  64 cycles.
 Requested convergence on MAX density matrix=1.00D-06.
 Requested convergence on             energy=1.00D-06.
 No special actions if energy rises.
 Using DIIS extrapolation, IDIIS=  1040.
 Integral symmetry usage will be decided dynamically.
 Keep R1 ints in memory in canonical form, NReq=1105469.
 IEnd=       10544 IEndB=       10544 NGot= 26843545600 MDV= 26843265824
 LenX= 26843265824 LenY= 26843263939
 Symmetry not used in FoFDir.
 MinBra= 0 MaxBra= 2 Meth= 1.
 IRaf=       0 NMat=   1 IRICut=       1 DoRegI=T DoRafI=F ISym2E= 0 JSym2E=0.

 Cycle   1  Pass 1  IDiag  1:
 E= -114.924453609620    
 DIIS: error= 5.53D-02 at cycle   1 NSaved=   1.
 NSaved= 1 IEnMin= 1 EnMin= -114.924453609620     IErMin= 1 ErrMin= 5.53D-02
 ErrMax= 5.53D-02 EMaxC= 1.00D-01 BMatC= 1.66D-01 BMatP= 1.66D-01
 IDIUse=3 WtCom= 4.47D-01 WtEn= 5.53D-01
 Coeff-Com:  0.100D+01
 Coeff-En:   0.100D+01
 Coeff:      0.100D+01
 Gap=     0.648 Goal=   None    Shift=    0.000
 GapD=    0.648 DampG=2.000 DampE=0.500 DampFc=1.0000 IDamp=-1.
 RMSDP=9.30D-03 MaxDP=9.95D-02              OVMax= 1.00D-01

 Cycle   2  Pass 1  IDiag  1:
 E= -115.013611407477     Delta-E=       -0.089157797857 Rises=F Damp=F
 DIIS: error= 2.47D-02 at cycle   2 NSaved=   2.
 NSaved= 2 IEnMin= 2 EnMin= -115.013611407477     IErMin= 2 ErrMin= 2.47D-02
 ErrMax= 2.47D-02 EMaxC= 1.00D-01 BMatC= 2.80D-02 BMatP= 1.66D-01
 IDIUse=3 WtCom= 7.53D-01 WtEn= 2.47D-01
 Coeff-Com:  0.240D+00 0.760D+00
 Coeff-En:   0.000D+00 0.100D+01
 Coeff:      0.181D+00 0.819D+00
 Gap=     0.687 Goal=   None    Shift=    0.000
 RMSDP=3.70D-03 MaxDP=4.33D-02 DE=-8.92D-02 OVMax= 3.68D-02

 Cycle   3  Pass 1  IDiag  1:
 E= -115.032290420695     Delta-E=       -0.018679013218 Rises=F Damp=F
 DIIS: error= 5.93D-03 at cycle   3 NSaved=   3.
 NSaved= 3 IEnMin= 3 EnMin= -115.032290420695     IErMin= 3 ErrMin= 5.93D-03
 ErrMax= 5.93D-03 EMaxC= 1.00D-01 BMatC= 1.94D-03 BMatP= 2.80D-02
 IDIUse=3 WtCom= 9.41D-01 WtEn= 5.93D-02
 Coeff-Com: -0.165D-01 0.178D+00 0.839D+00
 Coeff-En:   0.000D+00 0.000D+00 0.100D+01
 Coeff:     -0.155D-01 0.167D+00 0.848D+00
 Gap=     0.662 Goal=   None    Shift=    0.000
 RMSDP=7.67D-04 MaxDP=1.19D-02 DE=-1.87D-02 OVMax= 1.03D-02

 Cycle   4  Pass 1  IDiag  1:
 E= -115.033701024007     Delta-E=       -0.001410603312 Rises=F Damp=F
 DIIS: error= 1.08D-03 at cycle   4 NSaved=   4.
 NSaved= 4 IEnMin= 4 EnMin= -115.033701024007     IErMin= 4 ErrMin= 1.08D-03
 ErrMax= 1.08D-03 EMaxC= 1.00D-01 BMatC= 6.55D-05 BMatP= 1.94D-03
 IDIUse=3 WtCom= 9.89D-01 WtEn= 1.08D-02
 Coeff-Com: -0.752D-02 0.203D-01 0.209D+00 0.778D+00
 Coeff-En:   0.000D+00 0.000D+00 0.000D+00 0.100D+01
 Coeff:     -0.743D-02 0.201D-01 0.207D+00 0.780D+00
 Gap=     0.663 Goal=   None    Shift=    0.000
 RMSDP=1.72D-04 MaxDP=1.85D-03 DE=-1.41D-03 OVMax= 2.24D-03

 Cycle   5  Pass 1  IDiag  1:
 E= -115.033757196075     Delta-E=       -0.000056172067 Rises=F Damp=F
 DIIS: error= 3.17D-04 at cycle   5 NSaved=   5.
 NSaved= 5 IEnMin= 5 EnMin= -115.033757196075     IErMin= 5 ErrMin= 3.17D-04
 ErrMax= 3.17D-04 EMaxC= 1.00D-01 BMatC= 2.88D-06 BMatP= 6.55D-05
 IDIUse=3 WtCom= 9.97D-01 WtEn= 3.17D-03
 Coeff-Com:  0.178D-02-0.171D-01-0.803D-01-0.324D-01 0.113D+01
 Coeff-En:   0.000D+00 0.000D+00 0.000D+00 0.000D+00 0.100D+01
 Coeff:      0.178D-02-0.171D-01-0.800D-01-0.323D-01 0.113D+01
 Gap=     0.663 Goal=   None    Shift=    0.000
 RMSDP=6.45D-05 MaxDP=5.64D-04 DE=-5.62D-05 OVMax= 7.21D-04

 Cycle   6  Pass 1  IDiag  1:
 E= -115.033761607128     Delta-E=       -0.000004411053 Rises=F Damp=F
 DIIS: error= 3.86D-05 at cycle   6 NSaved=   6.
 NSaved= 6 IEnMin= 6 EnMin= -115.033761607128     IErMin= 6 ErrMin= 3.86D-05
 ErrMax= 3.86D-05 EMaxC= 1.00D-01 BMatC= 7.13D-08 BMatP= 2.88D-06
 IDIUse=1 WtCom= 1.00D+00 WtEn= 0.00D+00
 Coeff-Com:  0.152D-03 0.319D-03-0.965D-03-0.286D-01-0.107D+00 0.114D+01
 Coeff:      0.152D-03 0.319D-03-0.965D-03-0.286D-01-0.107D+00 0.114D+01
 Gap=     0.664 Goal=   None    Shift=    0.000
 RMSDP=1.42D-05 MaxDP=1.36D-04 DE=-4.41D-06 OVMax= 1.78D-04

 Cycle   7  Pass 1  IDiag  1:
 E= -115.033761776955     Delta-E=       -0.000000169827 Rises=F Damp=F
 DIIS: error= 7.79D-06 at cycle   7 NSaved=   7.
 NSaved= 7 IEnMin= 7 EnMin= -115.033761776955     IErMin= 7 ErrMin= 7.79D-06
 ErrMax= 7.79D-06 EMaxC= 1.00D-01 BMatC= 3.90D-09 BMatP= 7.13D-08
 IDIUse=1 WtCom= 1.00D+00 WtEn= 0.00D+00
 Coeff-Com: -0.121D-03 0.670D-03 0.411D-02 0.831D-02-0.155D-01-0.343D+00
 Coeff-Com:  0.135D+01
 Coeff:     -0.121D-03 0.670D-03 0.411D-02 0.831D-02-0.155D-01-0.343D+00
 Coeff:      0.135D+01
 Gap=     0.664 Goal=   None    Shift=    0.000
 RMSDP=4.17D-06 MaxDP=4.81D-05 DE=-1.70D-07 OVMax= 6.11D-05

 Cycle   8  Pass 1  IDiag  1:
 E= -115.033761787373     Delta-E=       -0.000000010418 Rises=F Damp=F
 DIIS: error= 1.97D-06 at cycle   8 NSaved=   8.
 NSaved= 8 IEnMin= 8 EnMin= -115.033761787373     IErMin= 8 ErrMin= 1.97D-06
 ErrMax= 1.97D-06 EMaxC= 1.00D-01 BMatC= 1.10D-10 BMatP= 3.90D-09
 IDIUse=1 WtCom= 1.00D+00 WtEn= 0.00D+00
 Coeff-Com:  0.325D-04-0.215D-03-0.128D-02-0.207D-02 0.703D-02 0.947D-01
 Coeff-Com: -0.489D+00 0.139D+01
 Coeff:      0.325D-04-0.215D-03-0.128D-02-0.207D-02 0.703D-02 0.947D-01
 Coeff:     -0.489D+00 0.139D+01
 Gap=     0.664 Goal=   None    Shift=    0.000
 RMSDP=8.02D-07 MaxDP=6.74D-06 DE=-1.04D-08 OVMax= 1.11D-05

 Cycle   9  Pass 1  IDiag  1:
 E= -115.033761787688     Delta-E=       -0.000000000315 Rises=F Damp=F
 DIIS: error= 2.65D-07 at cycle   9 NSaved=   9.
 NSaved= 9 IEnMin= 9 EnMin= -115.033761787688     IErMin= 9 ErrMin= 2.65D-07
 ErrMax= 2.65D-07 EMaxC= 1.00D-01 BMatC= 2.51D-12 BMatP= 1.10D-10
 IDIUse=1 WtCom= 1.00D+00 WtEn= 0.00D+00
 Coeff-Com: -0.348D-05 0.266D-04 0.152D-03 0.142D-03-0.121D-02-0.754D-02
 Coeff-Com:  0.567D-01-0.264D+00 0.122D+01
 Coeff:     -0.348D-05 0.266D-04 0.152D-03 0.142D-03-0.121D-02-0.754D-02
 Coeff:      0.567D-01-0.264D+00 0.122D+01
 Gap=     0.664 Goal=   None    Shift=    0.000
 RMSDP=8.18D-08 MaxDP=7.97D-07 DE=-3.15D-10 OVMax= 1.25D-06

 Cycle  10  Pass 1  IDiag  1:
 E= -115.033761787694     Delta-E=       -0.000000000006 Rises=F Damp=F
 DIIS: error= 5.34D-08 at cycle  10 NSaved=  10.
 NSaved=10 IEnMin=10 EnMin= -115.033761787694     IErMin=10 ErrMin= 5.34D-08
 ErrMax= 5.34D-08 EMaxC= 1.00D-01 BMatC= 1.48D-13 BMatP= 2.51D-12
 IDIUse=1 WtCom= 1.00D+00 WtEn= 0.00D+00
 Coeff-Com: -0.877D-06 0.515D-05 0.320D-04 0.781D-04-0.122D-03-0.298D-02
 Coeff-Com:  0.118D-01-0.160D-01-0.239D+00 0.125D+01
 Coeff:     -0.877D-06 0.515D-05 0.320D-04 0.781D-04-0.122D-03-0.298D-02
 Coeff:      0.118D-01-0.160D-01-0.239D+00 0.125D+01
 Gap=     0.664 Goal=   None    Shift=    0.000
 RMSDP=2.24D-08 MaxDP=2.03D-07 DE=-6.34D-12 OVMax= 3.30D-07

 Cycle  11  Pass 1  IDiag  1:
 E= -115.033761787695     Delta-E=        0.000000000000 Rises=F Damp=F
 DIIS: error= 1.06D-08 at cycle  11 NSaved=  11.
 NSaved=11 IEnMin=11 EnMin= -115.033761787695     IErMin=11 ErrMin= 1.06D-08
 ErrMax= 1.06D-08 EMaxC= 1.00D-01 BMatC= 5.03D-15 BMatP= 1.48D-13
 IDIUse=1 WtCom= 1.00D+00 WtEn= 0.00D+00
 Coeff-Com:  0.294D-06-0.216D-05-0.121D-04-0.156D-04 0.743D-04 0.783D-03
 Coeff-Com: -0.441D-02 0.157D-01-0.289D-01-0.163D+00 0.118D+01
 Coeff:      0.294D-06-0.216D-05-0.121D-04-0.156D-04 0.743D-04 0.783D-03
 Coeff:     -0.441D-02 0.157D-01-0.289D-01-0.163D+00 0.118D+01
 Gap=     0.664 Goal=   None    Shift=    0.000
 RMSDP=4.59D-09 MaxDP=2.99D-08 DE=-3.41D-13 OVMax= 4.58D-08

 SCF Done:  E(RHF) =  -115.033761788     A.U. after   11 cycles
             Convg  =    0.4587D-08             -V/T =  2.0024
 KE= 1.147564963071D+02 PE=-3.516961450509D+02 EE= 8.153909263933D+01
 Leave Link  502 at Thu May 19 11:19:09 2022, MaxMem=26843545600 cpu:       1.1
 (Enter /opt/g09gh/gaussian/g09/l801.exe)
 ExpMin= 1.61D-01 ExpMax= 5.48D+03 ExpMxC= 8.25D+02 IAcc=1 IRadAn=         1 AccDes= 0.00D+00
 HarFok:  IExCor=  205 AccDes= 0.00D+00 IRadAn=         1 IDoV=-2
 ScaDFX=  1.000000  1.000000  1.000000  1.000000
 Largest valence mixing into a core orbital is  2.07D-04
 Largest core mixing into a valence orbital is  3.02D-05
 Range of M.O.s used for correlation:     3    38
 NBasis=    38 NAE=     9 NBE=     9 NFC=     2 NFV=     0
 NROrb=     36 NOA=     7 NOB=     7 NVA=    29 NVB=    29
 Leave Link  801 at Thu May 19 11:19:09 2022, MaxMem=26843545600 cpu:       0.4
 (Enter /opt/g09gh/gaussian/g09/l906.exe)
 Frozen-core derivative calculation, NFC=   2 NFV=   0.
 FulOut=F Deriv=T AODrv=T NAtomX=     6
   MMem=      888563  MDisk=           7 MDiskD=           7
  W3Min=       12996 MinDsk=       75631 NBas6D=          38
 NBas2D=         795    NTT=         741    LW2=     2040000
    MDV= 26843519548 MDiskM=     9810496 NBas2p=         795
 Fully direct method using O(ONN) memory.
 IMap=   1   2   3   4   5   6   7   8   9
 JobTyp=1 Pass  1:  I=   3 to   9 NPSUse= 10 ParTrn=T ParDer=T DoDerP=T.
 Spin components of T(2) and E(2):
     alpha-alpha T2 =       0.1083876828D-01 E2=     -0.3802086868D-01
     alpha-beta  T2 =       0.6865336780D-01 E2=     -0.2353897793D+00
     beta-beta   T2 =       0.1083876828D-01 E2=     -0.3802086868D-01
 The integrals were generated   1 times.
 ANorm=    0.1044189113D+01
 E2 =    -0.3114315166D+00 EUMP2 =    -0.11534519330433D+03
 Leave Link  906 at Thu May 19 11:19:09 2022, MaxMem=26843545600 cpu:       1.3
 (Enter /opt/g09gh/gaussian/g09/l1002.exe)
 Minotr:  Closed shell wavefunction.
          Computing MP2/KS-MP2 derivatives.
          Using Z-Vector for PSCF gradient.
          Skipping F1 and S1 gradient terms here.
          IDoAtm=111111
          Frozen-core window.
          Direct CPHF calculation.
          Differentiating once with respect to electric field.
                with respect to dipole field.
          Differentiating once with respect to nuclear coordinates.
          Requested convergence is 1.0D-10 RMS, and 1.0D-09 maximum.
          NewPWx=F KeepS1=T KeepF1=T KeepIn=T MapXYZ=F SortEE=F KeepMc=T.
          MDV=   26843545536 using IRadAn=       0.
          Keep R1 ints in memory in canonical form, NReq=1095534.
 Symmetry not used in FoFDir.
 MinBra= 0 MaxBra= 2 Meth= 1.
 IRaf=       0 NMat=   1 IRICut=       1 DoRegI=T DoRafI=F ISym2E= 0 JSym2E=0.
          Solving linear equations separately, MaxMat=       0.
          There are     1 degrees of freedom in the 1st order CPHF.  IDoFFX=0.
 LinEq1:  Iter=  0 NonCon=     1 RMS=6.09D-03 Max=3.19D-02
 AX will form     1 AO Fock derivatives at one time.
 LinEq1:  Iter=  1 NonCon=     1 RMS=1.85D-03 Max=1.06D-02
 LinEq1:  Iter=  2 NonCon=     1 RMS=3.81D-04 Max=2.64D-03
 LinEq1:  Iter=  3 NonCon=     1 RMS=1.69D-04 Max=1.09D-03
 LinEq1:  Iter=  4 NonCon=     1 RMS=2.89D-05 Max=1.45D-04
 LinEq1:  Iter=  5 NonCon=     1 RMS=5.05D-06 Max=1.93D-05
 LinEq1:  Iter=  6 NonCon=     1 RMS=8.04D-07 Max=4.67D-06
 LinEq1:  Iter=  7 NonCon=     1 RMS=1.13D-07 Max=6.63D-07
 LinEq1:  Iter=  8 NonCon=     1 RMS=1.05D-08 Max=4.58D-08
 LinEq1:  Iter=  9 NonCon=     1 RMS=1.51D-09 Max=6.80D-09
 LinEq1:  Iter= 10 NonCon=     1 RMS=2.14D-10 Max=1.05D-09
 LinEq1:  Iter= 11 NonCon=     0 RMS=3.63D-11 Max=1.91D-10
 Linear equations converged to 1.000D-10 1.000D-09 after    11 iterations.
 End of Minotr Frequency-dependent properties file   721 does not exist.
 End of Minotr Frequency-dependent properties file   722 does not exist.
 Leave Link 1002 at Thu May 19 11:19:10 2022, MaxMem=26843545600 cpu:       1.8
 (Enter /opt/g09gh/gaussian/g09/l601.exe)
 Copying SCF densities to generalized density rwf, IOpCl= 0 IROHF=0.

 **********************************************************************

            Population analysis using the SCF density.

 **********************************************************************

 Orbital symmetries:
       Occupied  (A) (A) (A) (A) (A) (A) (A) (A) (A)
       Virtual   (A) (A) (A) (A) (A) (A) (A) (A) (A) (A) (A) (A)
                 (A) (A) (A) (A) (A) (A) (A) (A) (A) (A) (A) (A)
                 (A) (A) (A) (A) (A)
 The electronic state is 1-A.
 Alpha  occ. eigenvalues --  -20.55704 -11.27097  -1.34944  -0.92054  -0.68204
 Alpha  occ. eigenvalues --   -0.62033  -0.59103  -0.49664  -0.44271
 Alpha virt. eigenvalues --    0.22085   0.27859   0.32238   0.32568   0.37883
 Alpha virt. eigenvalues --    0.76858   0.77364   0.79095   1.04436   1.12842
 Alpha virt. eigenvalues --    1.13837   1.17499   1.20403   1.25032   1.27351
 Alpha virt. eigenvalues --    1.41092   1.71816   1.76796   1.86810   2.03994
 Alpha virt. eigenvalues --    2.39468   2.42556   2.50286   2.69221   2.71627
 Alpha virt. eigenvalues --    2.77865   3.15771   4.12047   4.63831
          Condensed to atoms (all electrons):
              1          2          3          4          5          6
     1  O    8.370780   0.211390  -0.040151  -0.040155  -0.032651   0.260073
     2  C    0.211390   4.797164   0.393174   0.393176   0.398641  -0.027343
     3  H   -0.040151   0.393174   0.581286  -0.040850  -0.032247  -0.004427
     4  H   -0.040155   0.393176  -0.040850   0.581309  -0.032252  -0.004427
     5  H   -0.032651   0.398641  -0.032247  -0.032252   0.518110   0.005131
     6  H    0.260073  -0.027343  -0.004427  -0.004427   0.005131   0.337186
 Mulliken atomic charges:
              1
     1  O   -0.729286
     2  C   -0.166202
     3  H    0.143214
     4  H    0.143199
     5  H    0.175268
     6  H    0.433808
 Sum of Mulliken atomic charges =   0.00000
 Mulliken charges with hydrogens summed into heavy atoms:
              1
     1  O   -0.295478
     2  C    0.295478
 Sum of Mulliken charges with hydrogens summed into heavy atoms =   0.00000
 Electronic spatial extent (au):  <R**2>=             83.5655
 Charge=              0.0000 electrons
 Dipole moment (field-independent basis, Debye):
    X=             -0.9947    Y=             -1.6799    Z=              0.0000  Tot=              1.9523
 Quadrupole moment (field-independent basis, Debye-Ang):
   XX=            -12.7622   YY=            -11.9943   ZZ=            -13.6381
   XY=             -2.4279   XZ=              0.0001   YZ=              0.0000
 Traceless Quadrupole moment (field-independent basis, Debye-Ang):
   XX=              0.0360   YY=              0.8039   ZZ=             -0.8399
   XY=             -2.4279   XZ=              0.0001   YZ=              0.0000
 Octapole moment (field-independent basis, Debye-Ang**2):
  XXX=              4.1451  YYY=             -0.7932  ZZZ=              0.0000  XYY=              1.8711
  XXY=             -2.2775  XXZ=              0.0000  XZZ=              0.5448  YZZ=             -0.6255
  YYZ=             -0.0001  XYZ=             -0.0002
 Hexadecapole moment (field-independent basis, Debye-Ang**3):
 XXXX=            -59.1650 YYYY=            -19.2116 ZZZZ=            -18.9403 XXXY=             -4.0936
 XXXZ=              0.0003 YYYX=             -3.0132 YYYZ=              0.0001 ZZZX=              0.0001
 ZZZY=              0.0001 XXYY=            -11.8395 XXZZ=            -13.7285 YYZZ=             -6.4772
 XXYZ=              0.0001 YYXZ=              0.0001 ZZXY=              0.0410
 N-N= 4.036679431676D+01 E-N=-3.516961450259D+02  KE= 1.147564963071D+02
 No NMR shielding tensors so no spin-rotation constants.
 Leave Link  601 at Thu May 19 11:19:10 2022, MaxMem=26843545600 cpu:       2.3
 (Enter /opt/g09gh/gaussian/g09/l701.exe)
 Compute integral first derivatives.
 ... and contract with generalized density number  2.
 Leave Link  701 at Thu May 19 11:19:11 2022, MaxMem=26843545600 cpu:       1.5
 (Enter /opt/g09gh/gaussian/g09/l702.exe)
 L702 exits ... SP integral derivatives will be done elsewhere.
 Leave Link  702 at Thu May 19 11:19:11 2022, MaxMem=26843545600 cpu:       0.2
 (Enter /opt/g09gh/gaussian/g09/l703.exe)
 Compute integral first derivatives, UseDBF=F ICtDFT=           0.
 Integral derivatives from FoFDir, PRISM(SPDF).
 Calling FoFJK, ICntrl=      2127 FMM=F ISym2X=0 I1Cent= 0 IOpClX= 0 NMat=1 NMatS=1 NMatT=0.
 FoFCou: FMM=F IPFlag=           0 FMFlag=      100000 FMFlg1=         800
         NFxFlg=           0 DoJE=F BraDBF=F KetDBF=F FulRan=T
         Omega=  0.000000  0.000000  1.000000  0.000000  0.000000 ICntrl=    2127 IOpCl=  0
         NMat0=    1 NMatS0=    1 NMatT0=    0 NMatD0=    1 NMtDS0=    0 NMtDT0=    0
         I1Cent=           0 NGrid=           0.
 Symmetry not used in FoFCou.
 Leave Link  703 at Thu May 19 11:19:11 2022, MaxMem=26843545600 cpu:       2.1
 (Enter /opt/g09gh/gaussian/g09/l716.exe)
 Dipole        =-3.45096220D-01-6.39785892D-01 1.24503167D-05
 ***** Axes restored to original set *****
 -------------------------------------------------------------------
 Center     Atomic                   Forces (Hartrees/Bohr)
 Number     Number              X              Y              Z
 -------------------------------------------------------------------
      1        8          -0.000776814    0.000355904    0.011726234
      2        6           0.006435358   -0.000079086   -0.001582905
      3        1          -0.002459648    0.000409326   -0.006774134
      4        1          -0.002463963   -0.000792625   -0.006729096
      5        1           0.002378981    0.000100424    0.003159630
      6        1          -0.003113915    0.000006056    0.000200271
 -------------------------------------------------------------------
 Cartesian Forces:  Max     0.011726234 RMS     0.004160904
 Leave Link  716 at Thu May 19 11:19:11 2022, MaxMem=26843545600 cpu:       0.3
 (Enter /opt/g09gh/gaussian/g09/l103.exe)

 GradGradGradGradGradGradGradGradGradGradGradGradGradGradGradGradGradGrad
 Berny optimization.
 Internal  Forces:  Max     0.009982450 RMS     0.005545201
 Search for a local minimum.
 Step number   1 out of a maximum of  100
 All quantities printed in internal units (Hartrees-Bohrs-Radians)
 RMS Force = .55452D-02 SwitMx=.10000D-02 MixMth= 1
 Mixed Optimization -- RFO/linear search
 Second derivative matrix not updated -- first step.
 The second derivative matrix:
                          R1        R2        R3        R4        R5
           R1           0.43108
           R2           0.00000   0.52892
           R3           0.00000   0.00000   0.34493
           R4           0.00000   0.00000   0.00000   0.34488
           R5           0.00000   0.00000   0.00000   0.00000   0.34524
           A1           0.00000   0.00000   0.00000   0.00000   0.00000
           A2           0.00000   0.00000   0.00000   0.00000   0.00000
           A3           0.00000   0.00000   0.00000   0.00000   0.00000
           A4           0.00000   0.00000   0.00000   0.00000   0.00000
           A5           0.00000   0.00000   0.00000   0.00000   0.00000
           A6           0.00000   0.00000   0.00000   0.00000   0.00000
           A7           0.00000   0.00000   0.00000   0.00000   0.00000
           D1           0.00000   0.00000   0.00000   0.00000   0.00000
           D2           0.00000   0.00000   0.00000   0.00000   0.00000
           D3           0.00000   0.00000   0.00000   0.00000   0.00000
                          A1        A2        A3        A4        A5
           A1           0.16000
           A2           0.00000   0.16000
           A3           0.00000   0.00000   0.16000
           A4           0.00000   0.00000   0.00000   0.16000
           A5           0.00000   0.00000   0.00000   0.00000   0.16000
           A6           0.00000   0.00000   0.00000   0.00000   0.00000
           A7           0.00000   0.00000   0.00000   0.00000   0.00000
           D1           0.00000   0.00000   0.00000   0.00000   0.00000
           D2           0.00000   0.00000   0.00000   0.00000   0.00000
           D3           0.00000   0.00000   0.00000   0.00000   0.00000
                          A6        A7        D1        D2        D3
           A6           0.16000
           A7           0.00000   0.16000
           D1           0.00000   0.00000   0.01484
           D2           0.00000   0.00000   0.00000   0.01484
           D3           0.00000   0.00000   0.00000   0.00000   0.01484
     Eigenvalues ---    0.01484   0.10393   0.10483   0.16000   0.16000
     Eigenvalues ---    0.16000   0.16000   0.34488   0.34493   0.34524
     Eigenvalues ---    0.43108   0.528921000.000001000.000001000.00000
 RFO step:  Lambda=-2.47932471D-03 EMin= 1.48356476D-02
 Linear search not attempted -- first point.
 Iteration  1 RMS(Cart)=  0.04858943 RMS(Int)=  0.00171027
 Iteration  2 RMS(Cart)=  0.00119485 RMS(Int)=  0.00118126
 Iteration  3 RMS(Cart)=  0.00000106 RMS(Int)=  0.00118126
 Iteration  4 RMS(Cart)=  0.00000000 RMS(Int)=  0.00118126
 Variable       Old X    -DE/DX   Delta X   Delta X   Delta X     New X
                                 (Linear)    (Quad)   (Total)
    R1        2.67536   0.00998   0.00000   0.02302   0.02302   2.69839
    R2        1.83755  -0.00312   0.00000  -0.00587  -0.00587   1.83168
    R3        2.06506   0.00286   0.00000   0.00824   0.00824   2.07330
    R4        2.06514   0.00284   0.00000   0.00817   0.00817   2.07331
    R5        2.06455  -0.00236   0.00000  -0.00680  -0.00680   2.05775
    A1        1.86906   0.00015   0.00000   0.00094   0.00094   1.87000
    A2        1.91168   0.00973   0.00000   0.06294   0.06167   1.97335
    A3        1.91164   0.00974   0.00000   0.06300   0.06173   1.97337
    A4        1.90215  -0.00913   0.00000  -0.06222  -0.06169   1.84047
    A5        1.92109  -0.00523   0.00000  -0.02025  -0.02277   1.89831
    A6        1.90862  -0.00260   0.00000  -0.02215  -0.02163   1.88699
    A7        1.90852  -0.00260   0.00000  -0.02208  -0.02156   1.88697
    D1       -1.05423  -0.00286   0.00000  -0.02688  -0.02917  -1.08340
    D2        1.05427   0.00286   0.00000   0.02684   0.02913   1.08340
    D3        3.14154   0.00000   0.00000   0.00004   0.00004   3.14159
         Item               Value     Threshold  Converged?
 Maximum Force            0.009982     0.000450     NO 
 RMS     Force            0.005545     0.000300     NO 
 Maximum Displacement     0.087126     0.001800     NO 
 RMS     Displacement     0.048335     0.001200     NO 
 Predicted change in Energy=-1.276400D-03
 GradGradGradGradGradGradGradGradGradGradGradGradGradGradGradGradGradGrad

 Leave Link  103 at Thu May 19 11:19:11 2022, MaxMem=26843545600 cpu:       0.1
 (Enter /opt/g09gh/gaussian/g09/l202.exe)
                          Input orientation:                          
 ---------------------------------------------------------------------
 Center     Atomic      Atomic             Coordinates (Angstroms)
 Number     Number       Type             X           Y           Z
 ---------------------------------------------------------------------
      1          8           0        0.985879    0.074447    0.090492
      2          6           0        0.548808    0.033534   -1.268281
      3          1           0        0.867294    0.908359   -1.848771
      4          1           0        0.867295   -0.874625   -1.795105
      5          1           0       -0.539171    0.034877   -1.223222
      6          1           0        1.955094    0.074107    0.078987
 ---------------------------------------------------------------------
                    Distance matrix (angstroms):
                    1          2          3          4          5
     1  O    0.000000
     2  C    1.427924   0.000000
     3  H    2.114288   1.097143   0.000000
     4  H    2.114303   1.097146   1.783792   0.000000
     5  H    2.013253   1.088913   1.769867   1.769857   0.000000
     6  H    0.969283   1.947927   2.365489   2.365507   2.814009
                    6
     6  H    0.000000
 Stoichiometry    CH4O
 Framework group  C1[X(CH4O)]
 Deg. of freedom    12
 Full point group                 C1      NOp   1
 Largest Abelian subgroup         C1      NOp   1
 Largest concise Abelian subgroup C1      NOp   1
                         Standard orientation:                         
 ---------------------------------------------------------------------
 Center     Atomic      Atomic             Coordinates (Angstroms)
 Number     Number       Type             X           Y           Z
 ---------------------------------------------------------------------
      1          8           0        0.753723    0.120748    0.000000
      2          6           0       -0.667212   -0.020358   -0.000001
      3          1           0       -1.048218   -0.533279   -0.891892
      4          1           0       -1.048241   -0.533250    0.891900
      5          1           0       -1.059610    0.995396   -0.000011
      6          1           0        1.129560   -0.772704    0.000013
 ---------------------------------------------------------------------
 Rotational constants (GHZ):    127.6443872     24.5656544     23.6988479
 Leave Link  202 at Thu May 19 11:19:11 2022, MaxMem=26843545600 cpu:       0.0
 (Enter /opt/g09gh/gaussian/g09/l301.exe)
 Standard basis: 6-31G(d) (6D, 7F)
 Ernie: Thresh=  0.10000D-02 Tol=  0.10000D-05 Strict=F.
 There are    38 symmetry adapted basis functions of A   symmetry.
 Integral buffers will be    131072 words long.
 Raffenetti 1 integral format.
 Two-electron integral symmetry is turned on.
    38 basis functions,    72 primitive gaussians,    38 cartesian basis functions
     9 alpha electrons        9 beta electrons
       nuclear repulsion energy        40.1270851319 Hartrees.
 IExCor=    0 DFT=F Ex=HF Corr=None ExCW=0 ScaHFX=  1.000000
 ScaDFX=  1.000000  1.000000  1.000000  1.000000 ScalE2=  1.000000  1.000000
 IRadAn=      0 IRanWt=     -1 IRanGd=            0 ICorTp=0
 NAtoms=    6 NActive=    6 NUniq=    6 SFac= 7.50D-01 NAtFMM=   80 NAOKFM=F Big=F
 Leave Link  301 at Thu May 19 11:19:11 2022, MaxMem=26843545600 cpu:       0.5
 (Enter /opt/g09gh/gaussian/g09/l302.exe)
 NPDir=0 NMtPBC=     1 NCelOv=     1 NCel=       1 NClECP=     1 NCelD=      1
         NCelK=      1 NCelE2=     1 NClLst=     1 CellRange=     0.0.
 One-electron integrals computed using PRISM.
 NBasis=    38 RedAO= T  NBF=    38
 NBsUse=    38 1.00D-06 NBFU=    38
 Leave Link  302 at Thu May 19 11:19:11 2022, MaxMem=26843545600 cpu:       1.9
 (Enter /opt/g09gh/gaussian/g09/l303.exe)
 DipDrv:  MaxL=1.
 Leave Link  303 at Thu May 19 11:19:11 2022, MaxMem=26843545600 cpu:       0.3
 (Enter /opt/g09gh/gaussian/g09/l401.exe)
 Initial guess read from the read-write file.
 B after Tr=     0.000000    0.000000    0.000000
         Rot=    1.000000    0.000000    0.000000    0.000000 Ang=   0.00 deg.
 Guess basis will be translated and rotated to current coordinates.
 Initial guess orbital symmetries:
       Occupied  (A) (A) (A) (A) (A) (A) (A) (A) (A)
       Virtual   (A) (A) (A) (A) (A) (A) (A) (A) (A) (A) (A) (A)
                 (A) (A) (A) (A) (A) (A) (A) (A) (A) (A) (A) (A)
                 (A) (A) (A) (A) (A)
 The electronic state of the initial guess is 1-A.
 Generating alternative initial guess.
 Harris functional with IExCor=  205 diagonalized for initial guess.
 ExpMin= 1.61D-01 ExpMax= 5.48D+03 ExpMxC= 8.25D+02 IAcc=1 IRadAn=         1 AccDes= 0.00D+00
 HarFok:  IExCor=  205 AccDes= 0.00D+00 IRadAn=         1 IDoV= 1
 ScaDFX=  1.000000  1.000000  1.000000  1.000000
 FoFCou: FMM=F IPFlag=           0 FMFlag=      100000 FMFlg1=           0
         NFxFlg=           0 DoJE=T BraDBF=F KetDBF=T FulRan=T
         Omega=  0.000000  0.000000  1.000000  0.000000  0.000000 ICntrl=     500 IOpCl=  0
         NMat0=    1 NMatS0=    1 NMatT0=    0 NMatD0=    1 NMtDS0=    0 NMtDT0=    0
         I1Cent=           4 NGrid=           0.
 Petite list used in FoFCou.
 Harris En= -115.210881284939    
 Leave Link  401 at Thu May 19 11:19:12 2022, MaxMem=26843545600 cpu:       2.6
 (Enter /opt/g09gh/gaussian/g09/l502.exe)
 Closed shell SCF:
 Requested convergence on RMS density matrix=1.00D-08 within  64 cycles.
 Requested convergence on MAX density matrix=1.00D-06.
 Requested convergence on             energy=1.00D-06.
 No special actions if energy rises.
 Using DIIS extrapolation, IDIIS=  1040.
 Integral symmetry usage will be decided dynamically.
 Keep R1 ints in memory in canonical form, NReq=1105469.
 IEnd=       10544 IEndB=       10544 NGot= 26843545600 MDV= 26843265824
 LenX= 26843265824 LenY= 26843263939
 Symmetry not used in FoFDir.
 MinBra= 0 MaxBra= 2 Meth= 1.
 IRaf=       0 NMat=   1 IRICut=       1 DoRegI=T DoRafI=F ISym2E= 0 JSym2E=0.

 Cycle   1  Pass 1  IDiag  1:
 E= -115.032718778030    
 DIIS: error= 3.91D-03 at cycle   1 NSaved=   1.
 NSaved= 1 IEnMin= 1 EnMin= -115.032718778030     IErMin= 1 ErrMin= 3.91D-03
 ErrMax= 3.91D-03 EMaxC= 1.00D-01 BMatC= 6.61D-04 BMatP= 6.61D-04
 IDIUse=3 WtCom= 9.61D-01 WtEn= 3.91D-02
 Coeff-Com:  0.100D+01
 Coeff-En:   0.100D+01
 Coeff:      0.100D+01
 Gap=     0.671 Goal=   None    Shift=    0.000
 GapD=    0.671 DampG=2.000 DampE=1.000 DampFc=2.0000 IDamp=-1.
 RMSDP=5.94D-04 MaxDP=4.64D-03              OVMax= 8.83D-03

 Cycle   2  Pass 1  IDiag  1:
 E= -115.033699210430     Delta-E=       -0.000980432399 Rises=F Damp=F
 DIIS: error= 1.24D-03 at cycle   2 NSaved=   2.
 NSaved= 2 IEnMin= 2 EnMin= -115.033699210430     IErMin= 2 ErrMin= 1.24D-03
 ErrMax= 1.24D-03 EMaxC= 1.00D-01 BMatC= 5.27D-05 BMatP= 6.61D-04
 IDIUse=3 WtCom= 9.88D-01 WtEn= 1.24D-02
 Coeff-Com: -0.232D+00 0.123D+01
 Coeff-En:   0.000D+00 0.100D+01
 Coeff:     -0.229D+00 0.123D+01
 Gap=     0.670 Goal=   None    Shift=    0.000
 RMSDP=2.49D-04 MaxDP=1.81D-03 DE=-9.80D-04 OVMax= 4.49D-03

 Cycle   3  Pass 1  IDiag  1:
 E= -115.033807737271     Delta-E=       -0.000108526841 Rises=F Damp=F
 DIIS: error= 3.22D-04 at cycle   3 NSaved=   3.
 NSaved= 3 IEnMin= 3 EnMin= -115.033807737271     IErMin= 3 ErrMin= 3.22D-04
 ErrMax= 3.22D-04 EMaxC= 1.00D-01 BMatC= 3.91D-06 BMatP= 5.27D-05
 IDIUse=3 WtCom= 9.97D-01 WtEn= 3.22D-03
 Coeff-Com: -0.528D-01 0.525D-01 0.100D+01
 Coeff-En:   0.000D+00 0.000D+00 0.100D+01
 Coeff:     -0.527D-01 0.523D-01 0.100D+01
 Gap=     0.670 Goal=   None    Shift=    0.000
 RMSDP=7.88D-05 MaxDP=6.35D-04 DE=-1.09D-04 OVMax= 1.29D-03

 Cycle   4  Pass 1  IDiag  1:
 E= -115.033815149522     Delta-E=       -0.000007412251 Rises=F Damp=F
 DIIS: error= 1.18D-04 at cycle   4 NSaved=   4.
 NSaved= 4 IEnMin= 4 EnMin= -115.033815149522     IErMin= 4 ErrMin= 1.18D-04
 ErrMax= 1.18D-04 EMaxC= 1.00D-01 BMatC= 4.88D-07 BMatP= 3.91D-06
 IDIUse=3 WtCom= 9.99D-01 WtEn= 1.18D-03
 Coeff-Com:  0.128D-01-0.102D+00 0.153D+00 0.937D+00
 Coeff-En:   0.000D+00 0.000D+00 0.000D+00 0.100D+01
 Coeff:      0.127D-01-0.102D+00 0.153D+00 0.937D+00
 Gap=     0.670 Goal=   None    Shift=    0.000
 RMSDP=3.15D-05 MaxDP=2.43D-04 DE=-7.41D-06 OVMax= 5.69D-04

 Cycle   5  Pass 1  IDiag  1:
 E= -115.033816021782     Delta-E=       -0.000000872260 Rises=F Damp=F
 DIIS: error= 2.81D-05 at cycle   5 NSaved=   5.
 NSaved= 5 IEnMin= 5 EnMin= -115.033816021782     IErMin= 5 ErrMin= 2.81D-05
 ErrMax= 2.81D-05 EMaxC= 1.00D-01 BMatC= 4.43D-08 BMatP= 4.88D-07
 IDIUse=1 WtCom= 1.00D+00 WtEn= 0.00D+00
 Coeff-Com:  0.633D-02-0.170D-01-0.805D-01 0.993D-01 0.992D+00
 Coeff:      0.633D-02-0.170D-01-0.805D-01 0.993D-01 0.992D+00
 Gap=     0.670 Goal=   None    Shift=    0.000
 RMSDP=1.09D-05 MaxDP=8.56D-05 DE=-8.72D-07 OVMax= 1.81D-04

 Cycle   6  Pass 1  IDiag  1:
 E= -115.033816101974     Delta-E=       -0.000000080191 Rises=F Damp=F
 DIIS: error= 9.74D-06 at cycle   6 NSaved=   6.
 NSaved= 6 IEnMin= 6 EnMin= -115.033816101974     IErMin= 6 ErrMin= 9.74D-06
 ErrMax= 9.74D-06 EMaxC= 1.00D-01 BMatC= 3.03D-09 BMatP= 4.43D-08
 IDIUse=1 WtCom= 1.00D+00 WtEn= 0.00D+00
 Coeff-Com: -0.133D-03 0.568D-02-0.229D-01-0.573D-01 0.104D+00 0.971D+00
 Coeff:     -0.133D-03 0.568D-02-0.229D-01-0.573D-01 0.104D+00 0.971D+00
 Gap=     0.670 Goal=   None    Shift=    0.000
 RMSDP=2.87D-06 MaxDP=2.23D-05 DE=-8.02D-08 OVMax= 4.88D-05

 Cycle   7  Pass 1  IDiag  1:
 E= -115.033816107842     Delta-E=       -0.000000005868 Rises=F Damp=F
 DIIS: error= 2.62D-06 at cycle   7 NSaved=   7.
 NSaved= 7 IEnMin= 7 EnMin= -115.033816107842     IErMin= 7 ErrMin= 2.62D-06
 ErrMax= 2.62D-06 EMaxC= 1.00D-01 BMatC= 2.36D-10 BMatP= 3.03D-09
 IDIUse=1 WtCom= 1.00D+00 WtEn= 0.00D+00
 Coeff-Com: -0.534D-03 0.109D-02 0.873D-02-0.326D-02-0.100D+00-0.401D-01
 Coeff-Com:  0.113D+01
 Coeff:     -0.534D-03 0.109D-02 0.873D-02-0.326D-02-0.100D+00-0.401D-01
 Coeff:      0.113D+01
 Gap=     0.670 Goal=   None    Shift=    0.000
 RMSDP=8.64D-07 MaxDP=6.52D-06 DE=-5.87D-09 OVMax= 1.16D-05

 Cycle   8  Pass 1  IDiag  1:
 E= -115.033816108373     Delta-E=       -0.000000000531 Rises=F Damp=F
 DIIS: error= 4.26D-07 at cycle   8 NSaved=   8.
 NSaved= 8 IEnMin= 8 EnMin= -115.033816108373     IErMin= 8 ErrMin= 4.26D-07
 ErrMax= 4.26D-07 EMaxC= 1.00D-01 BMatC= 9.93D-12 BMatP= 2.36D-10
 IDIUse=1 WtCom= 1.00D+00 WtEn= 0.00D+00
 Coeff-Com:  0.890D-04-0.431D-03-0.266D-03 0.390D-02 0.858D-02-0.458D-01
 Coeff-Com: -0.180D+00 0.121D+01
 Coeff:      0.890D-04-0.431D-03-0.266D-03 0.390D-02 0.858D-02-0.458D-01
 Coeff:     -0.180D+00 0.121D+01
 Gap=     0.670 Goal=   None    Shift=    0.000
 RMSDP=1.93D-07 MaxDP=1.40D-06 DE=-5.31D-10 OVMax= 2.63D-06

 Cycle   9  Pass 1  IDiag  1:
 E= -115.033816108399     Delta-E=       -0.000000000026 Rises=F Damp=F
 DIIS: error= 8.80D-08 at cycle   9 NSaved=   9.
 NSaved= 9 IEnMin= 9 EnMin= -115.033816108399     IErMin= 9 ErrMin= 8.80D-08
 ErrMax= 8.80D-08 EMaxC= 1.00D-01 BMatC= 3.62D-13 BMatP= 9.93D-12
 IDIUse=1 WtCom= 1.00D+00 WtEn= 0.00D+00
 Coeff-Com:  0.319D-05 0.465D-04-0.329D-03-0.577D-03 0.221D-02 0.133D-01
 Coeff-Com: -0.633D-02-0.277D+00 0.127D+01
 Coeff:      0.319D-05 0.465D-04-0.329D-03-0.577D-03 0.221D-02 0.133D-01
 Coeff:     -0.633D-02-0.277D+00 0.127D+01
 Gap=     0.670 Goal=   None    Shift=    0.000
 RMSDP=3.98D-08 MaxDP=2.56D-07 DE=-2.59D-11 OVMax= 5.87D-07

 Cycle  10  Pass 1  IDiag  1:
 E= -115.033816108400     Delta-E=       -0.000000000001 Rises=F Damp=F
 DIIS: error= 1.26D-08 at cycle  10 NSaved=  10.
 NSaved=10 IEnMin=10 EnMin= -115.033816108400     IErMin=10 ErrMin= 1.26D-08
 ErrMax= 1.26D-08 EMaxC= 1.00D-01 BMatC= 8.38D-15 BMatP= 3.62D-13
 IDIUse=1 WtCom= 1.00D+00 WtEn= 0.00D+00
 Coeff-Com: -0.205D-05-0.361D-05 0.763D-04 0.466D-04-0.635D-03-0.220D-02
 Coeff-Com:  0.391D-02 0.418D-01-0.312D+00 0.127D+01
 Coeff:     -0.205D-05-0.361D-05 0.763D-04 0.466D-04-0.635D-03-0.220D-02
 Coeff:      0.391D-02 0.418D-01-0.312D+00 0.127D+01
 Gap=     0.670 Goal=   None    Shift=    0.000
 RMSDP=6.19D-09 MaxDP=5.19D-08 DE=-9.66D-13 OVMax= 8.80D-08

 SCF Done:  E(RHF) =  -115.033816108     A.U. after   10 cycles
             Convg  =    0.6187D-08             -V/T =  2.0027
 KE= 1.147215741904D+02 PE=-3.511783262125D+02 EE= 8.129585078185D+01
 Leave Link  502 at Thu May 19 11:19:12 2022, MaxMem=26843545600 cpu:       1.4
 (Enter /opt/g09gh/gaussian/g09/l801.exe)
 ExpMin= 1.61D-01 ExpMax= 5.48D+03 ExpMxC= 8.25D+02 IAcc=1 IRadAn=         1 AccDes= 0.00D+00
 HarFok:  IExCor=  205 AccDes= 0.00D+00 IRadAn=         1 IDoV=-2
 ScaDFX=  1.000000  1.000000  1.000000  1.000000
 Largest valence mixing into a core orbital is  2.08D-04
 Largest core mixing into a valence orbital is  3.04D-05
 Range of M.O.s used for correlation:     3    38
 NBasis=    38 NAE=     9 NBE=     9 NFC=     2 NFV=     0
 NROrb=     36 NOA=     7 NOB=     7 NVA=    29 NVB=    29
 Leave Link  801 at Thu May 19 11:19:12 2022, MaxMem=26843545600 cpu:       0.4
 (Enter /opt/g09gh/gaussian/g09/l906.exe)
 Frozen-core derivative calculation, NFC=   2 NFV=   0.
 FulOut=F Deriv=T AODrv=T NAtomX=     6
   MMem=      888563  MDisk=           7 MDiskD=           7
  W3Min=       12996 MinDsk=       75631 NBas6D=          38
 NBas2D=         795    NTT=         741    LW2=     2040000
    MDV= 26843519533 MDiskM=     9810496 NBas2p=         795
 Fully direct method using O(ONN) memory.
 IMap=   1   2   3   4   5   6   7   8   9
 JobTyp=1 Pass  1:  I=   3 to   9 NPSUse= 10 ParTrn=T ParDer=T DoDerP=T.
 Spin components of T(2) and E(2):
     alpha-alpha T2 =       0.1092078314D-01 E2=     -0.3811108513D-01
     alpha-beta  T2 =       0.6916528205D-01 E2=     -0.2360083842D+00
     beta-beta   T2 =       0.1092078314D-01 E2=     -0.3811108513D-01
 The integrals were generated   1 times.
 ANorm=    0.1044512732D+01
 E2 =    -0.3122305544D+00 EUMP2 =    -0.11534604666285D+03
 Leave Link  906 at Thu May 19 11:19:12 2022, MaxMem=26843545600 cpu:       1.3
 (Enter /opt/g09gh/gaussian/g09/l1002.exe)
 Minotr:  Closed shell wavefunction.
          Computing MP2/KS-MP2 derivatives.
          Using Z-Vector for PSCF gradient.
          Skipping F1 and S1 gradient terms here.
          IDoAtm=111111
          Frozen-core window.
          Direct CPHF calculation.
          Differentiating once with respect to electric field.
                with respect to dipole field.
          Differentiating once with respect to nuclear coordinates.
          Requested convergence is 1.0D-10 RMS, and 1.0D-09 maximum.
          NewPWx=F KeepS1=T KeepF1=T KeepIn=T MapXYZ=F SortEE=F KeepMc=T.
          MDV=   26843545536 using IRadAn=       0.
          Keep R1 ints in memory in canonical form, NReq=1095534.
 Symmetry not used in FoFDir.
 MinBra= 0 MaxBra= 2 Meth= 1.
 IRaf=       0 NMat=   1 IRICut=       1 DoRegI=T DoRafI=F ISym2E= 0 JSym2E=0.
          Solving linear equations separately, MaxMat=       0.
          There are     1 degrees of freedom in the 1st order CPHF.  IDoFFX=0.
 LinEq1:  Iter=  0 NonCon=     1 RMS=6.25D-03 Max=3.41D-02
 AX will form     1 AO Fock derivatives at one time.
 LinEq1:  Iter=  1 NonCon=     1 RMS=1.90D-03 Max=1.11D-02
 LinEq1:  Iter=  2 NonCon=     1 RMS=3.97D-04 Max=2.84D-03
 LinEq1:  Iter=  3 NonCon=     1 RMS=1.77D-04 Max=1.14D-03
 LinEq1:  Iter=  4 NonCon=     1 RMS=2.98D-05 Max=1.46D-04
 LinEq1:  Iter=  5 NonCon=     1 RMS=5.19D-06 Max=2.03D-05
 LinEq1:  Iter=  6 NonCon=     1 RMS=8.24D-07 Max=4.85D-06
 LinEq1:  Iter=  7 NonCon=     1 RMS=1.20D-07 Max=7.48D-07
 LinEq1:  Iter=  8 NonCon=     1 RMS=1.27D-08 Max=5.34D-08
 LinEq1:  Iter=  9 NonCon=     1 RMS=2.12D-09 Max=9.86D-09
 LinEq1:  Iter= 10 NonCon=     1 RMS=2.97D-10 Max=1.13D-09
 LinEq1:  Iter= 11 NonCon=     0 RMS=4.78D-11 Max=2.75D-10
 Linear equations converged to 1.000D-10 1.000D-09 after    11 iterations.
 End of Minotr Frequency-dependent properties file   721 does not exist.
 End of Minotr Frequency-dependent properties file   722 does not exist.
 Leave Link 1002 at Thu May 19 11:19:12 2022, MaxMem=26843545600 cpu:       1.8
 (Enter /opt/g09gh/gaussian/g09/l701.exe)
 Compute integral first derivatives.
 ... and contract with generalized density number  2.
 Leave Link  701 at Thu May 19 11:19:13 2022, MaxMem=26843545600 cpu:       2.3
 (Enter /opt/g09gh/gaussian/g09/l702.exe)
 L702 exits ... SP integral derivatives will be done elsewhere.
 Leave Link  702 at Thu May 19 11:19:13 2022, MaxMem=26843545600 cpu:       0.2
 (Enter /opt/g09gh/gaussian/g09/l703.exe)
 Compute integral first derivatives, UseDBF=F ICtDFT=           0.
 Integral derivatives from FoFDir, PRISM(SPDF).
 Calling FoFJK, ICntrl=      2127 FMM=F ISym2X=0 I1Cent= 0 IOpClX= 0 NMat=1 NMatS=1 NMatT=0.
 FoFCou: FMM=F IPFlag=           0 FMFlag=      100000 FMFlg1=         800
         NFxFlg=           0 DoJE=F BraDBF=F KetDBF=F FulRan=T
         Omega=  0.000000  0.000000  1.000000  0.000000  0.000000 ICntrl=    2127 IOpCl=  0
         NMat0=    1 NMatS0=    1 NMatT0=    0 NMatD0=    1 NMtDS0=    0 NMtDT0=    0
         I1Cent=           0 NGrid=           0.
 Symmetry not used in FoFCou.
 Leave Link  703 at Thu May 19 11:19:13 2022, MaxMem=26843545600 cpu:       2.2
 (Enter /opt/g09gh/gaussian/g09/l716.exe)
 Dipole        =-3.50287106D-01-6.32695326D-01 7.90860767D-06
 ***** Axes restored to original set *****
 -------------------------------------------------------------------
 Center     Atomic                   Forces (Hartrees/Bohr)
 Number     Number              X              Y              Z
 -------------------------------------------------------------------
      1        8           0.000462582   -0.000120576   -0.003969197
      2        6          -0.003362223    0.000049133    0.001679585
      3        1           0.001364545    0.000205629    0.001298014
      4        1           0.001365952   -0.000125668    0.001310475
      5        1          -0.001053670   -0.000023884   -0.000829621
      6        1           0.001222814    0.000015367    0.000510743
 -------------------------------------------------------------------
 Cartesian Forces:  Max     0.003969197 RMS     0.001506551
 Leave Link  716 at Thu May 19 11:19:13 2022, MaxMem=26843545600 cpu:       0.3
 (Enter /opt/g09gh/gaussian/g09/l103.exe)

 GradGradGradGradGradGradGradGradGradGradGradGradGradGradGradGradGradGrad
 Berny optimization.
 Using GEDIIS/GDIIS optimizer.
 Internal  Forces:  Max     0.002778103 RMS     0.001609831
 Search for a local minimum.
 Step number   2 out of a maximum of  100
 All quantities printed in internal units (Hartrees-Bohrs-Radians)
 RMS Force = .16098D-02 SwitMx=.10000D-02 MixMth= 1
 Mixed Optimization -- RFO/linear search
 Update second derivatives using D2CorX and points    1    2
 DE= -8.53D-04 DEPred=-1.28D-03 R= 6.69D-01
 SS=  1.41D+00  RLast= 1.24D-01 DXNew= 5.0454D-01 3.7128D-01
 Trust test= 6.69D-01 RLast= 1.24D-01 DXMaxT set to 3.71D-01
 The second derivative matrix:
                          R1        R2        R3        R4        R5
           R1           0.44102
           R2          -0.00449   0.53079
           R3           0.00018  -0.00038   0.34436
           R4           0.00020  -0.00038  -0.00056   0.34433
           R5          -0.00381   0.00156  -0.00039  -0.00039   0.34653
           A1          -0.00387   0.00130  -0.00094  -0.00093   0.00101
           A2           0.00850  -0.00399  -0.00014  -0.00013  -0.00342
           A3           0.00850  -0.00399  -0.00014  -0.00013  -0.00342
           A4          -0.00653   0.00332   0.00060   0.00058   0.00290
           A5          -0.01000   0.00380  -0.00156  -0.00155   0.00308
           A6           0.00034   0.00027   0.00083   0.00082   0.00032
           A7           0.00031   0.00028   0.00082   0.00081   0.00033
           D1          -0.01525   0.00523  -0.00348  -0.00345   0.00409
           D2           0.01524  -0.00523   0.00348   0.00345  -0.00409
           D3           0.00001   0.00000   0.00000   0.00000   0.00000
                          A1        A2        A3        A4        A5
           A1           0.16020
           A2          -0.00376   0.16711
           A3          -0.00376   0.00711   0.16712
           A4           0.00363  -0.00521  -0.00521   0.16339
           A5           0.00182  -0.00926  -0.00927   0.00830   0.16679
           A6           0.00111   0.00071   0.00071  -0.00125   0.00162
           A7           0.00110   0.00068   0.00069  -0.00122   0.00163
           D1           0.00111  -0.01470  -0.01471   0.01405   0.00772
           D2          -0.00111   0.01469   0.01470  -0.01403  -0.00771
           D3           0.00000   0.00001   0.00001  -0.00001  -0.00001
                          A6        A7        D1        D2        D3
           A6           0.15884
           A7          -0.00115   0.15886
           D1           0.00405   0.00405   0.02044
           D2          -0.00405  -0.00404  -0.00560   0.02043
           D3           0.00000   0.00000  -0.00001   0.00001   0.01484
 Use linear search instead of GDIIS.
     Eigenvalues ---    0.01484   0.10581   0.10630   0.15891   0.16000
     Eigenvalues ---    0.16000   0.19426   0.34369   0.34491   0.34678
     Eigenvalues ---    0.44282   0.531361000.000001000.000001000.00000
 RFO step:  Lambda=-1.10490675D-05 EMin= 1.48356476D-02
 Quartic linear search produced a step of -0.23279.
 Iteration  1 RMS(Cart)=  0.01032897 RMS(Int)=  0.00020871
 Iteration  2 RMS(Cart)=  0.00007254 RMS(Int)=  0.00019802
 Iteration  3 RMS(Cart)=  0.00000000 RMS(Int)=  0.00019802
 Variable       Old X    -DE/DX   Delta X   Delta X   Delta X     New X
                                 (Linear)    (Quad)   (Total)
    R1        2.69839  -0.00278  -0.00536   0.00049  -0.00487   2.69351
    R2        1.83168   0.00122   0.00137   0.00038   0.00174   1.83342
    R3        2.07330  -0.00013  -0.00192   0.00165  -0.00026   2.07303
    R4        2.07331  -0.00013  -0.00190   0.00163  -0.00027   2.07304
    R5        2.05775   0.00102   0.00158   0.00066   0.00225   2.05999
    A1        1.87000   0.00096  -0.00022   0.00482   0.00461   1.87461
    A2        1.97335  -0.00261  -0.01436   0.00037  -0.01379   1.95956
    A3        1.97337  -0.00261  -0.01437   0.00037  -0.01381   1.95956
    A4        1.84047   0.00273   0.01436   0.00120   0.01546   1.85593
    A5        1.89831   0.00104   0.00530  -0.00484   0.00088   1.89919
    A6        1.88699   0.00090   0.00504   0.00165   0.00660   1.89358
    A7        1.88697   0.00090   0.00502   0.00168   0.00661   1.89357
    D1       -1.08340   0.00140   0.00679   0.00297   0.01015  -1.07325
    D2        1.08340  -0.00140  -0.00678  -0.00298  -0.01016   1.07325
    D3        3.14159   0.00000  -0.00001   0.00001   0.00000   3.14159
         Item               Value     Threshold  Converged?
 Maximum Force            0.002778     0.000450     NO 
 RMS     Force            0.001610     0.000300     NO 
 Maximum Displacement     0.016426     0.001800     NO 
 RMS     Displacement     0.010359     0.001200     NO 
 Predicted change in Energy=-8.564073D-05
 GradGradGradGradGradGradGradGradGradGradGradGradGradGradGradGradGradGrad

 Leave Link  103 at Thu May 19 11:19:13 2022, MaxMem=26843545600 cpu:       0.1
 (Enter /opt/g09gh/gaussian/g09/l202.exe)
                          Input orientation:                          
 ---------------------------------------------------------------------
 Center     Atomic      Atomic             Coordinates (Angstroms)
 Number     Number       Type             X           Y           Z
 ---------------------------------------------------------------------
      1          8           0        0.988238    0.074314    0.086175
      2          6           0        0.542040    0.033576   -1.266917
      3          1           0        0.872015    0.908787   -1.840100
      4          1           0        0.872025   -0.874528   -1.786413
      5          1           0       -0.547458    0.034656   -1.230677
      6          1           0        1.958340    0.073895    0.072032
 ---------------------------------------------------------------------
                    Distance matrix (angstroms):
                    1          2          3          4          5
     1  O    0.000000
     2  C    1.425346   0.000000
     3  H    2.102471   1.097003   0.000000
     4  H    2.102473   1.097004   1.784123   0.000000
     5  H    2.023372   1.090101   1.774938   1.774934   0.000000
     6  H    0.970206   1.949440   2.352317   2.352318   2.824467
                    6
     6  H    0.000000
 Stoichiometry    CH4O
 Framework group  C1[X(CH4O)]
 Deg. of freedom    12
 Full point group                 C1      NOp   1
 Largest Abelian subgroup         C1      NOp   1
 Largest concise Abelian subgroup C1      NOp   1
                         Standard orientation:                         
 ---------------------------------------------------------------------
 Center     Atomic      Atomic             Coordinates (Angstroms)
 Number     Number       Type             X           Y           Z
 ---------------------------------------------------------------------
      1          8           0        0.751276    0.122804   -0.000001
      2          6           0       -0.666942   -0.019565   -0.000001
      3          1           0       -1.032283   -0.543182   -0.892058
      4          1           0       -1.032285   -0.543171    0.892064
      5          1           0       -1.076524    0.990664   -0.000002
      6          1           0        1.132541   -0.769348    0.000005
 ---------------------------------------------------------------------
 Rotational constants (GHZ):    127.2204953     24.6655740     23.7783908
 Leave Link  202 at Thu May 19 11:19:13 2022, MaxMem=26843545600 cpu:       0.0
 (Enter /opt/g09gh/gaussian/g09/l301.exe)
 Standard basis: 6-31G(d) (6D, 7F)
 Ernie: Thresh=  0.10000D-02 Tol=  0.10000D-05 Strict=F.
 There are    38 symmetry adapted basis functions of A   symmetry.
 Integral buffers will be    131072 words long.
 Raffenetti 1 integral format.
 Two-electron integral symmetry is turned on.
    38 basis functions,    72 primitive gaussians,    38 cartesian basis functions
     9 alpha electrons        9 beta electrons
       nuclear repulsion energy        40.1634607884 Hartrees.
 IExCor=    0 DFT=F Ex=HF Corr=None ExCW=0 ScaHFX=  1.000000
 ScaDFX=  1.000000  1.000000  1.000000  1.000000 ScalE2=  1.000000  1.000000
 IRadAn=      0 IRanWt=     -1 IRanGd=            0 ICorTp=0
 NAtoms=    6 NActive=    6 NUniq=    6 SFac= 7.50D-01 NAtFMM=   80 NAOKFM=F Big=F
 Leave Link  301 at Thu May 19 11:19:13 2022, MaxMem=26843545600 cpu:       0.5
 (Enter /opt/g09gh/gaussian/g09/l302.exe)
 NPDir=0 NMtPBC=     1 NCelOv=     1 NCel=       1 NClECP=     1 NCelD=      1
         NCelK=      1 NCelE2=     1 NClLst=     1 CellRange=     0.0.
 One-electron integrals computed using PRISM.
 NBasis=    38 RedAO= T  NBF=    38
 NBsUse=    38 1.00D-06 NBFU=    38
 Leave Link  302 at Thu May 19 11:19:13 2022, MaxMem=26843545600 cpu:       2.0
 (Enter /opt/g09gh/gaussian/g09/l303.exe)
 DipDrv:  MaxL=1.
 Leave Link  303 at Thu May 19 11:19:14 2022, MaxMem=26843545600 cpu:       0.2
 (Enter /opt/g09gh/gaussian/g09/l401.exe)
 Initial guess read from the read-write file.
 B after Tr=     0.000000    0.000000    0.000000
         Rot=    1.000000    0.000000    0.000000    0.000000 Ang=   0.00 deg.
 Guess basis will be translated and rotated to current coordinates.
 Initial guess orbital symmetries:
       Occupied  (A) (A) (A) (A) (A) (A) (A) (A) (A)
       Virtual   (A) (A) (A) (A) (A) (A) (A) (A) (A) (A) (A) (A)
                 (A) (A) (A) (A) (A) (A) (A) (A) (A) (A) (A) (A)
                 (A) (A) (A) (A) (A)
 The electronic state of the initial guess is 1-A.
 Leave Link  401 at Thu May 19 11:19:14 2022, MaxMem=26843545600 cpu:       0.9
 (Enter /opt/g09gh/gaussian/g09/l502.exe)
 Closed shell SCF:
 Requested convergence on RMS density matrix=1.00D-08 within  64 cycles.
 Requested convergence on MAX density matrix=1.00D-06.
 Requested convergence on             energy=1.00D-06.
 No special actions if energy rises.
 Using DIIS extrapolation, IDIIS=  1040.
 Integral symmetry usage will be decided dynamically.
 Keep R1 ints in memory in canonical form, NReq=1105469.
 IEnd=       10544 IEndB=       10544 NGot= 26843545600 MDV= 26843265824
 LenX= 26843265824 LenY= 26843263939
 Symmetry not used in FoFDir.
 MinBra= 0 MaxBra= 2 Meth= 1.
 IRaf=       0 NMat=   1 IRICut=       1 DoRegI=T DoRafI=F ISym2E= 0 JSym2E=0.

 Cycle   1  Pass 1  IDiag  1:
 E= -115.034028586614    
 DIIS: error= 8.61D-04 at cycle   1 NSaved=   1.
 NSaved= 1 IEnMin= 1 EnMin= -115.034028586614     IErMin= 1 ErrMin= 8.61D-04
 ErrMax= 8.61D-04 EMaxC= 1.00D-01 BMatC= 3.89D-05 BMatP= 3.89D-05
 IDIUse=3 WtCom= 9.91D-01 WtEn= 8.61D-03
 Coeff-Com:  0.100D+01
 Coeff-En:   0.100D+01
 Coeff:      0.100D+01
 Gap=     0.668 Goal=   None    Shift=    0.000
 RMSDP=1.44D-04 MaxDP=1.09D-03              OVMax= 2.09D-03

 Cycle   2  Pass 1  IDiag  1:
 E= -115.034084803833     Delta-E=       -0.000056217219 Rises=F Damp=F
 DIIS: error= 2.61D-04 at cycle   2 NSaved=   2.
 NSaved= 2 IEnMin= 2 EnMin= -115.034084803833     IErMin= 2 ErrMin= 2.61D-04
 ErrMax= 2.61D-04 EMaxC= 1.00D-01 BMatC= 2.83D-06 BMatP= 3.89D-05
 IDIUse=3 WtCom= 9.97D-01 WtEn= 2.61D-03
 Coeff-Com: -0.247D+00 0.125D+01
 Coeff-En:   0.000D+00 0.100D+01
 Coeff:     -0.247D+00 0.125D+01
 Gap=     0.668 Goal=   None    Shift=    0.000
 RMSDP=5.78D-05 MaxDP=4.28D-04 DE=-5.62D-05 OVMax= 1.01D-03

 Cycle   3  Pass 1  IDiag  1:
 E= -115.034090617455     Delta-E=       -0.000005813623 Rises=F Damp=F
 DIIS: error= 6.41D-05 at cycle   3 NSaved=   3.
 NSaved= 3 IEnMin= 3 EnMin= -115.034090617455     IErMin= 3 ErrMin= 6.41D-05
 ErrMax= 6.41D-05 EMaxC= 1.00D-01 BMatC= 1.40D-07 BMatP= 2.83D-06
 IDIUse=1 WtCom= 1.00D+00 WtEn= 0.00D+00
 Coeff-Com: -0.156D-01-0.869D-01 0.110D+01
 Coeff:     -0.156D-01-0.869D-01 0.110D+01
 Gap=     0.668 Goal=   None    Shift=    0.000
 RMSDP=1.77D-05 MaxDP=1.45D-04 DE=-5.81D-06 OVMax= 3.06D-04

 Cycle   4  Pass 1  IDiag  1:
 E= -115.034090935826     Delta-E=       -0.000000318371 Rises=F Damp=F
 DIIS: error= 2.24D-05 at cycle   4 NSaved=   4.
 NSaved= 4 IEnMin= 4 EnMin= -115.034090935826     IErMin= 4 ErrMin= 2.24D-05
 ErrMax= 2.24D-05 EMaxC= 1.00D-01 BMatC= 2.04D-08 BMatP= 1.40D-07
 IDIUse=1 WtCom= 1.00D+00 WtEn= 0.00D+00
 Coeff-Com:  0.139D-01-0.103D+00 0.221D+00 0.868D+00
 Coeff:      0.139D-01-0.103D+00 0.221D+00 0.868D+00
 Gap=     0.668 Goal=   None    Shift=    0.000
 RMSDP=5.81D-06 MaxDP=4.13D-05 DE=-3.18D-07 OVMax= 1.05D-04

 Cycle   5  Pass 1  IDiag  1:
 E= -115.034090968266     Delta-E=       -0.000000032440 Rises=F Damp=F
 DIIS: error= 6.46D-06 at cycle   5 NSaved=   5.
 NSaved= 5 IEnMin= 5 EnMin= -115.034090968266     IErMin= 5 ErrMin= 6.46D-06
 ErrMax= 6.46D-06 EMaxC= 1.00D-01 BMatC= 2.20D-09 BMatP= 2.04D-08
 IDIUse=1 WtCom= 1.00D+00 WtEn= 0.00D+00
 Coeff-Com:  0.362D-02-0.290D-03-0.130D+00 0.796D-01 0.105D+01
 Coeff:      0.362D-02-0.290D-03-0.130D+00 0.796D-01 0.105D+01
 Gap=     0.668 Goal=   None    Shift=    0.000
 RMSDP=2.66D-06 MaxDP=2.04D-05 DE=-3.24D-08 OVMax= 4.51D-05

 Cycle   6  Pass 1  IDiag  1:
 E= -115.034090972581     Delta-E=       -0.000000004315 Rises=F Damp=F
 DIIS: error= 1.80D-06 at cycle   6 NSaved=   6.
 NSaved= 6 IEnMin= 6 EnMin= -115.034090972581     IErMin= 6 ErrMin= 1.80D-06
 ErrMax= 1.80D-06 EMaxC= 1.00D-01 BMatC= 6.80D-11 BMatP= 2.20D-09
 IDIUse=1 WtCom= 1.00D+00 WtEn= 0.00D+00
 Coeff-Com: -0.113D-02 0.496D-02 0.693D-02-0.504D-01-0.157D+00 0.120D+01
 Coeff:     -0.113D-02 0.496D-02 0.693D-02-0.504D-01-0.157D+00 0.120D+01
 Gap=     0.668 Goal=   None    Shift=    0.000
 RMSDP=5.75D-07 MaxDP=4.31D-06 DE=-4.31D-09 OVMax= 9.56D-06

 Cycle   7  Pass 1  IDiag  1:
 E= -115.034090972774     Delta-E=       -0.000000000193 Rises=F Damp=F
 DIIS: error= 3.31D-07 at cycle   7 NSaved=   7.
 NSaved= 7 IEnMin= 7 EnMin= -115.034090972774     IErMin= 7 ErrMin= 3.31D-07
 ErrMax= 3.31D-07 EMaxC= 1.00D-01 BMatC= 4.54D-12 BMatP= 6.80D-11
 IDIUse=1 WtCom= 1.00D+00 WtEn= 0.00D+00
 Coeff-Com: -0.860D-04-0.425D-03 0.656D-02 0.108D-02-0.475D-01-0.105D+00
 Coeff-Com:  0.115D+01
 Coeff:     -0.860D-04-0.425D-03 0.656D-02 0.108D-02-0.475D-01-0.105D+00
 Coeff:      0.115D+01
 Gap=     0.668 Goal=   None    Shift=    0.000
 RMSDP=1.23D-07 MaxDP=8.98D-07 DE=-1.93D-10 OVMax= 1.50D-06

 Cycle   8  Pass 1  IDiag  1:
 E= -115.034090972785     Delta-E=       -0.000000000011 Rises=F Damp=F
 DIIS: error= 9.16D-08 at cycle   8 NSaved=   8.
 NSaved= 8 IEnMin= 8 EnMin= -115.034090972785     IErMin= 8 ErrMin= 9.16D-08
 ErrMax= 9.16D-08 EMaxC= 1.00D-01 BMatC= 3.55D-13 BMatP= 4.54D-12
 IDIUse=1 WtCom= 1.00D+00 WtEn= 0.00D+00
 Coeff-Com:  0.657D-04-0.370D-03 0.205D-03 0.388D-02 0.463D-02-0.922D-01
 Coeff-Com:  0.126D+00 0.957D+00
 Coeff:      0.657D-04-0.370D-03 0.205D-03 0.388D-02 0.463D-02-0.922D-01
 Coeff:      0.126D+00 0.957D+00
 Gap=     0.668 Goal=   None    Shift=    0.000
 RMSDP=2.52D-08 MaxDP=1.76D-07 DE=-1.09D-11 OVMax= 3.24D-07

 Cycle   9  Pass 1  IDiag  1:
 E= -115.034090972786     Delta-E=       -0.000000000001 Rises=F Damp=F
 DIIS: error= 1.92D-08 at cycle   9 NSaved=   9.
 NSaved= 9 IEnMin= 9 EnMin= -115.034090972786     IErMin= 9 ErrMin= 1.92D-08
 ErrMax= 1.92D-08 EMaxC= 1.00D-01 BMatC= 1.88D-14 BMatP= 3.55D-13
 IDIUse=1 WtCom= 1.00D+00 WtEn= 0.00D+00
 Coeff-Com:  0.253D-05 0.581D-04-0.554D-03-0.208D-03 0.342D-02 0.162D-01
 Coeff-Com: -0.987D-01-0.818D-01 0.116D+01
 Coeff:      0.253D-05 0.581D-04-0.554D-03-0.208D-03 0.342D-02 0.162D-01
 Coeff:     -0.987D-01-0.818D-01 0.116D+01
 Gap=     0.668 Goal=   None    Shift=    0.000
 RMSDP=8.18D-09 MaxDP=5.69D-08 DE=-8.53D-13 OVMax= 1.21D-07

 SCF Done:  E(RHF) =  -115.034090973     A.U. after    9 cycles
             Convg  =    0.8176D-08             -V/T =  2.0027
 KE= 1.147243228903D+02 PE=-3.512570351300D+02 EE= 8.133516047856D+01
 Leave Link  502 at Thu May 19 11:19:14 2022, MaxMem=26843545600 cpu:       1.4
 (Enter /opt/g09gh/gaussian/g09/l801.exe)
 ExpMin= 1.61D-01 ExpMax= 5.48D+03 ExpMxC= 8.25D+02 IAcc=1 IRadAn=         1 AccDes= 0.00D+00
 HarFok:  IExCor=  205 AccDes= 0.00D+00 IRadAn=         1 IDoV=-2
 ScaDFX=  1.000000  1.000000  1.000000  1.000000
 Largest valence mixing into a core orbital is  2.08D-04
 Largest core mixing into a valence orbital is  3.04D-05
 Range of M.O.s used for correlation:     3    38
 NBasis=    38 NAE=     9 NBE=     9 NFC=     2 NFV=     0
 NROrb=     36 NOA=     7 NOB=     7 NVA=    29 NVB=    29
 Leave Link  801 at Thu May 19 11:19:14 2022, MaxMem=26843545600 cpu:       0.4
 (Enter /opt/g09gh/gaussian/g09/l906.exe)
 Frozen-core derivative calculation, NFC=   2 NFV=   0.
 FulOut=F Deriv=T AODrv=T NAtomX=     6
   MMem=      888563  MDisk=           7 MDiskD=           7
  W3Min=       12996 MinDsk=       75631 NBas6D=          38
 NBas2D=         795    NTT=         741    LW2=     2040000
    MDV= 26843519548 MDiskM=     9810496 NBas2p=         795
 Fully direct method using O(ONN) memory.
 IMap=   1   2   3   4   5   6   7   8   9
 JobTyp=1 Pass  1:  I=   3 to   9 NPSUse= 10 ParTrn=T ParDer=T DoDerP=T.
 Spin components of T(2) and E(2):
     alpha-alpha T2 =       0.1090252473D-01 E2=     -0.3808649169D-01
     alpha-beta  T2 =       0.6906400926D-01 E2=     -0.2358708121D+00
     beta-beta   T2 =       0.1090252473D-01 E2=     -0.3808649169D-01
 The integrals were generated   1 times.
 ANorm=    0.1044446772D+01
 E2 =    -0.3120437955D+00 EUMP2 =    -0.11534613476831D+03
 Leave Link  906 at Thu May 19 11:19:14 2022, MaxMem=26843545600 cpu:       1.3
 (Enter /opt/g09gh/gaussian/g09/l1002.exe)
 Minotr:  Closed shell wavefunction.
          Computing MP2/KS-MP2 derivatives.
          Using Z-Vector for PSCF gradient.
          Skipping F1 and S1 gradient terms here.
          IDoAtm=111111
          Frozen-core window.
          Direct CPHF calculation.
          Differentiating once with respect to electric field.
                with respect to dipole field.
          Differentiating once with respect to nuclear coordinates.
          Requested convergence is 1.0D-10 RMS, and 1.0D-09 maximum.
          NewPWx=F KeepS1=T KeepF1=T KeepIn=T MapXYZ=F SortEE=F KeepMc=T.
          MDV=   26843545536 using IRadAn=       0.
          Keep R1 ints in memory in canonical form, NReq=1095534.
 Symmetry not used in FoFDir.
 MinBra= 0 MaxBra= 2 Meth= 1.
 IRaf=       0 NMat=   1 IRICut=       1 DoRegI=T DoRafI=F ISym2E= 0 JSym2E=0.
          Solving linear equations separately, MaxMat=       0.
          There are     1 degrees of freedom in the 1st order CPHF.  IDoFFX=0.
 LinEq1:  Iter=  0 NonCon=     1 RMS=6.22D-03 Max=3.37D-02
 AX will form     1 AO Fock derivatives at one time.
 LinEq1:  Iter=  1 NonCon=     1 RMS=1.89D-03 Max=1.10D-02
 LinEq1:  Iter=  2 NonCon=     1 RMS=3.93D-04 Max=2.79D-03
 LinEq1:  Iter=  3 NonCon=     1 RMS=1.75D-04 Max=1.14D-03
 LinEq1:  Iter=  4 NonCon=     1 RMS=2.96D-05 Max=1.46D-04
 LinEq1:  Iter=  5 NonCon=     1 RMS=5.16D-06 Max=2.00D-05
 LinEq1:  Iter=  6 NonCon=     1 RMS=8.20D-07 Max=4.84D-06
 LinEq1:  Iter=  7 NonCon=     1 RMS=1.18D-07 Max=7.25D-07
 LinEq1:  Iter=  8 NonCon=     1 RMS=1.21D-08 Max=5.05D-08
 LinEq1:  Iter=  9 NonCon=     1 RMS=1.98D-09 Max=9.16D-09
 LinEq1:  Iter= 10 NonCon=     1 RMS=2.78D-10 Max=1.01D-09
 LinEq1:  Iter= 11 NonCon=     0 RMS=4.40D-11 Max=2.28D-10
 Linear equations converged to 1.000D-10 1.000D-09 after    11 iterations.
 End of Minotr Frequency-dependent properties file   721 does not exist.
 End of Minotr Frequency-dependent properties file   722 does not exist.
 Leave Link 1002 at Thu May 19 11:19:14 2022, MaxMem=26843545600 cpu:       1.7
 (Enter /opt/g09gh/gaussian/g09/l701.exe)
 Compute integral first derivatives.
 ... and contract with generalized density number  2.
 Leave Link  701 at Thu May 19 11:19:14 2022, MaxMem=26843545600 cpu:       1.8
 (Enter /opt/g09gh/gaussian/g09/l702.exe)
 L702 exits ... SP integral derivatives will be done elsewhere.
 Leave Link  702 at Thu May 19 11:19:15 2022, MaxMem=26843545600 cpu:       0.2
 (Enter /opt/g09gh/gaussian/g09/l703.exe)
 Compute integral first derivatives, UseDBF=F ICtDFT=           0.
 Integral derivatives from FoFDir, PRISM(SPDF).
 Calling FoFJK, ICntrl=      2127 FMM=F ISym2X=0 I1Cent= 0 IOpClX= 0 NMat=1 NMatS=1 NMatT=0.
 FoFCou: FMM=F IPFlag=           0 FMFlag=      100000 FMFlg1=         800
         NFxFlg=           0 DoJE=F BraDBF=F KetDBF=F FulRan=T
         Omega=  0.000000  0.000000  1.000000  0.000000  0.000000 ICntrl=    2127 IOpCl=  0
         NMat0=    1 NMatS0=    1 NMatT0=    0 NMatD0=    1 NMtDS0=    0 NMtDT0=    0
         I1Cent=           0 NGrid=           0.
 Symmetry not used in FoFCou.
 Leave Link  703 at Thu May 19 11:19:15 2022, MaxMem=26843545600 cpu:       2.2
 (Enter /opt/g09gh/gaussian/g09/l716.exe)
 Dipole        =-3.47002807D-01-6.34102653D-01 3.75495214D-06
 ***** Axes restored to original set *****
 -------------------------------------------------------------------
 Center     Atomic                   Forces (Hartrees/Bohr)
 Number     Number              X              Y              Z
 -------------------------------------------------------------------
      1        8          -0.000311539   -0.000013042   -0.000432964
      2        6           0.000174061    0.000012001    0.000435990
      3        1           0.000042885    0.000006862   -0.000023366
      4        1           0.000043240   -0.000007602   -0.000022555
      5        1           0.000135150    0.000005634    0.000170926
      6        1          -0.000083797   -0.000003852   -0.000128031
 -------------------------------------------------------------------
 Cartesian Forces:  Max     0.000435990 RMS     0.000179664
 Leave Link  716 at Thu May 19 11:19:15 2022, MaxMem=26843545600 cpu:       0.2
 (Enter /opt/g09gh/gaussian/g09/l103.exe)

 GradGradGradGradGradGradGradGradGradGradGradGradGradGradGradGradGradGrad
 Berny optimization.
 Using GEDIIS/GDIIS optimizer.
 Internal  Forces:  Max     0.000656797 RMS     0.000200397
 Search for a local minimum.
 Step number   3 out of a maximum of  100
 All quantities printed in internal units (Hartrees-Bohrs-Radians)
 RMS Force = .20040D-03 SwitMx=.10000D-02 MixMth= 2
 Mixed Optimization -- En-DIIS/RFO-DIIS
 Update second derivatives using D2CorX and points    1    2    3
 DE= -8.81D-05 DEPred=-8.56D-05 R= 1.03D+00
 SS=  1.41D+00  RLast= 3.11D-02 DXNew= 6.2442D-01 9.3300D-02
 Trust test= 1.03D+00 RLast= 3.11D-02 DXMaxT set to 3.71D-01
 The second derivative matrix:
                          R1        R2        R3        R4        R5
           R1           0.42340
           R2          -0.00059   0.53199
           R3           0.00059  -0.00044   0.34431
           R4           0.00058  -0.00044  -0.00062   0.34428
           R5          -0.00109   0.00302  -0.00042  -0.00042   0.34816
           A1          -0.00204   0.00377  -0.00097  -0.00096   0.00359
           A2          -0.00383  -0.00391   0.00008   0.00008  -0.00416
           A3          -0.00383  -0.00392   0.00008   0.00008  -0.00416
           A4           0.00464   0.00479   0.00042   0.00041   0.00510
           A5          -0.01120   0.00612  -0.00142  -0.00142   0.00531
           A6           0.00779  -0.00131   0.00063   0.00063  -0.00077
           A7           0.00780  -0.00131   0.00062   0.00062  -0.00077
           D1          -0.01555   0.00857  -0.00339  -0.00337   0.00740
           D2           0.01555  -0.00857   0.00339   0.00337  -0.00741
           D3           0.00000   0.00000   0.00000   0.00000   0.00000
                          A1        A2        A3        A4        A5
           A1           0.16397
           A2          -0.00617   0.16188
           A3          -0.00618   0.00188   0.16189
           A4           0.00796  -0.00244  -0.00245   0.16380
           A5           0.00485  -0.01269  -0.01270   0.01294   0.16860
           A6           0.00040   0.00583   0.00584  -0.00585   0.00224
           A7           0.00039   0.00583   0.00584  -0.00585   0.00225
           D1           0.00571  -0.01909  -0.01911   0.02047   0.01089
           D2          -0.00572   0.01909   0.01911  -0.02047  -0.01088
           D3           0.00000   0.00000   0.00000   0.00000   0.00000
                          A6        A7        D1        D2        D3
           A6           0.15567
           A7          -0.00434   0.15566
           D1           0.00430   0.00429   0.02561
           D2          -0.00430  -0.00429  -0.01077   0.02560
           D3           0.00000   0.00000   0.00000   0.00000   0.01484
 Use linear search instead of GDIIS.
     Eigenvalues ---    0.01484   0.10583   0.10652   0.15851   0.15948
     Eigenvalues ---    0.16000   0.19912   0.34361   0.34491   0.34910
     Eigenvalues ---    0.42348   0.532511000.000001000.000001000.00000
 RFO step:  Lambda=-1.89184503D-06 EMin= 1.48356476D-02
 Quartic linear search produced a step of -0.01237.
 Iteration  1 RMS(Cart)=  0.00109209 RMS(Int)=  0.00000102
 Iteration  2 RMS(Cart)=  0.00000027 RMS(Int)=  0.00000097
 Variable       Old X    -DE/DX   Delta X   Delta X   Delta X     New X
                                 (Linear)    (Quad)   (Total)
    R1        2.69351  -0.00066   0.00006  -0.00163  -0.00157   2.69194
    R2        1.83342  -0.00008  -0.00002  -0.00010  -0.00013   1.83330
    R3        2.07303   0.00003   0.00000   0.00008   0.00009   2.07312
    R4        2.07304   0.00003   0.00000   0.00008   0.00008   2.07312
    R5        2.05999  -0.00013  -0.00003  -0.00031  -0.00034   2.05966
    A1        1.87461  -0.00024  -0.00006  -0.00133  -0.00138   1.87322
    A2        1.95956   0.00003   0.00017  -0.00014   0.00003   1.95959
    A3        1.95956   0.00003   0.00017  -0.00014   0.00003   1.95959
    A4        1.85593  -0.00026  -0.00019  -0.00121  -0.00140   1.85453
    A5        1.89919  -0.00001  -0.00001   0.00002   0.00001   1.89920
    A6        1.89358   0.00010  -0.00008   0.00076   0.00068   1.89426
    A7        1.89357   0.00010  -0.00008   0.00077   0.00069   1.89426
    D1       -1.07325  -0.00002  -0.00013   0.00009  -0.00003  -1.07328
    D2        1.07325   0.00002   0.00013  -0.00010   0.00003   1.07327
    D3        3.14159   0.00000   0.00000   0.00000   0.00000   3.14159
         Item               Value     Threshold  Converged?
 Maximum Force            0.000657     0.000450     NO 
 RMS     Force            0.000200     0.000300     YES
 Maximum Displacement     0.002285     0.001800     NO 
 RMS     Displacement     0.001092     0.001200     YES
 Predicted change in Energy=-9.599849D-07
 GradGradGradGradGradGradGradGradGradGradGradGradGradGradGradGradGradGrad

 Leave Link  103 at Thu May 19 11:19:15 2022, MaxMem=26843545600 cpu:       0.1
 (Enter /opt/g09gh/gaussian/g09/l202.exe)
                          Input orientation:                          
 ---------------------------------------------------------------------
 Center     Atomic      Atomic             Coordinates (Angstroms)
 Number     Number       Type             X           Y           Z
 ---------------------------------------------------------------------
      1          8           0        0.987431    0.074301    0.085752
      2          6           0        0.542268    0.033578   -1.266806
      3          1           0        0.872528    0.908834   -1.839843
      4          1           0        0.872541   -0.874559   -1.786153
      5          1           0       -0.547023    0.034688   -1.229672
      6          1           0        1.957454    0.073858    0.070822
 ---------------------------------------------------------------------
                    Distance matrix (angstroms):
                    1          2          3          4          5
     1  O    0.000000
     2  C    1.424515   0.000000
     3  H    2.101800   1.097048   0.000000
     4  H    2.101800   1.097048   1.784201   0.000000
     5  H    2.021499   1.089924   1.775265   1.775264   0.000000
     6  H    0.970139   1.947723   2.350509   2.350508   2.822273
                    6
     6  H    0.000000
 Stoichiometry    CH4O
 Framework group  C1[X(CH4O)]
 Deg. of freedom    12
 Full point group                 C1      NOp   1
 Largest Abelian subgroup         C1      NOp   1
 Largest concise Abelian subgroup C1      NOp   1
                         Standard orientation:                         
 ---------------------------------------------------------------------
 Center     Atomic      Atomic             Coordinates (Angstroms)
 Number     Number       Type             X           Y           Z
 ---------------------------------------------------------------------
      1          8           0       -0.750865    0.122705    0.000000
      2          6           0        0.666537   -0.019469    0.000000
      3          1           0        1.031969   -0.543044    0.892100
      4          1           0        1.031969   -0.543045   -0.892100
      5          1           0        1.074559    0.991200   -0.000001
      6          1           0       -1.130799   -0.769942   -0.000001
 ---------------------------------------------------------------------
 Rotational constants (GHZ):    127.1726949     24.6965764     23.8058423
 Leave Link  202 at Thu May 19 11:19:15 2022, MaxMem=26843545600 cpu:       0.0
 (Enter /opt/g09gh/gaussian/g09/l301.exe)
 Standard basis: 6-31G(d) (6D, 7F)
 Ernie: Thresh=  0.10000D-02 Tol=  0.10000D-05 Strict=F.
 There are    38 symmetry adapted basis functions of A   symmetry.
 Integral buffers will be    131072 words long.
 Raffenetti 1 integral format.
 Two-electron integral symmetry is turned on.
    38 basis functions,    72 primitive gaussians,    38 cartesian basis functions
     9 alpha electrons        9 beta electrons
       nuclear repulsion energy        40.1794280999 Hartrees.
 IExCor=    0 DFT=F Ex=HF Corr=None ExCW=0 ScaHFX=  1.000000
 ScaDFX=  1.000000  1.000000  1.000000  1.000000 ScalE2=  1.000000  1.000000
 IRadAn=      0 IRanWt=     -1 IRanGd=            0 ICorTp=0
 NAtoms=    6 NActive=    6 NUniq=    6 SFac= 7.50D-01 NAtFMM=   80 NAOKFM=F Big=F
 Leave Link  301 at Thu May 19 11:19:15 2022, MaxMem=26843545600 cpu:       0.6
 (Enter /opt/g09gh/gaussian/g09/l302.exe)
 NPDir=0 NMtPBC=     1 NCelOv=     1 NCel=       1 NClECP=     1 NCelD=      1
         NCelK=      1 NCelE2=     1 NClLst=     1 CellRange=     0.0.
 One-electron integrals computed using PRISM.
 NBasis=    38 RedAO= T  NBF=    38
 NBsUse=    38 1.00D-06 NBFU=    38
 Leave Link  302 at Thu May 19 11:19:15 2022, MaxMem=26843545600 cpu:       2.0
 (Enter /opt/g09gh/gaussian/g09/l303.exe)
 DipDrv:  MaxL=1.
 Leave Link  303 at Thu May 19 11:19:15 2022, MaxMem=26843545600 cpu:       0.2
 (Enter /opt/g09gh/gaussian/g09/l401.exe)
 Initial guess read from the read-write file.
 B after Tr=     0.000000    0.000000    0.000000
         Rot=    1.000000    0.000000    0.000000    0.000000 Ang=   0.00 deg.
 Guess basis will be translated and rotated to current coordinates.
 Initial guess orbital symmetries:
       Occupied  (A) (A) (A) (A) (A) (A) (A) (A) (A)
       Virtual   (A) (A) (A) (A) (A) (A) (A) (A) (A) (A) (A) (A)
                 (A) (A) (A) (A) (A) (A) (A) (A) (A) (A) (A) (A)
                 (A) (A) (A) (A) (A)
 The electronic state of the initial guess is 1-A.
 Leave Link  401 at Thu May 19 11:19:15 2022, MaxMem=26843545600 cpu:       0.8
 (Enter /opt/g09gh/gaussian/g09/l502.exe)
 Closed shell SCF:
 Requested convergence on RMS density matrix=1.00D-08 within  64 cycles.
 Requested convergence on MAX density matrix=1.00D-06.
 Requested convergence on             energy=1.00D-06.
 No special actions if energy rises.
 Using DIIS extrapolation, IDIIS=  1040.
 Integral symmetry usage will be decided dynamically.
 Keep R1 ints in memory in canonical form, NReq=1105469.
 IEnd=       10544 IEndB=       10544 NGot= 26843545600 MDV= 26843265824
 LenX= 26843265824 LenY= 26843263939
 Symmetry not used in FoFDir.
 MinBra= 0 MaxBra= 2 Meth= 1.
 IRaf=       0 NMat=   1 IRICut=       1 DoRegI=T DoRafI=F ISym2E= 0 JSym2E=0.

 Cycle   1  Pass 1  IDiag  1:
 E= -112.752608509030    
 DIIS: error= 1.13D-01 at cycle   1 NSaved=   1.
 NSaved= 1 IEnMin= 1 EnMin= -112.752608509030     IErMin= 1 ErrMin= 1.13D-01
 ErrMax= 1.13D-01 EMaxC= 1.00D-01 BMatC= 5.61D-01 BMatP= 5.61D-01
 IDIUse=3 WtCom= 0.00D+00 WtEn= 1.00D+00
 Coeff-Com:  0.100D+01
 Coeff-En:   0.100D+01
 Coeff:      0.100D+01
 Gap=     0.431 Goal=   None    Shift=    0.000
 GapD=    0.431 DampG=2.000 DampE=0.250 DampFc=0.5000 IDamp=-1.
 Damping current iteration by 5.00D-01
 RMSDP=5.65D-02 MaxDP=7.34D-01              OVMax= 8.93D-01

 Cycle   2  Pass 1  IDiag  1:
 E= -113.647811452780     Delta-E=       -0.895202943750 Rises=F Damp=T
 DIIS: error= 7.13D-02 at cycle   2 NSaved=   2.
 NSaved= 2 IEnMin= 2 EnMin= -113.647811452780     IErMin= 2 ErrMin= 7.13D-02
 ErrMax= 7.13D-02 EMaxC= 1.00D-01 BMatC= 1.85D-01 BMatP= 5.61D-01
 IDIUse=3 WtCom= 2.87D-01 WtEn= 7.13D-01
 Coeff-Com: -0.816D+00 0.182D+01
 Coeff-En:   0.000D+00 0.100D+01
 Coeff:     -0.234D+00 0.123D+01
 Gap=     0.578 Goal=   None    Shift=    0.000
 RMSDP=2.93D-02 MaxDP=2.95D-01 DE=-8.95D-01 OVMax= 1.38D-01

 Cycle   3  Pass 1  IDiag  1:
 E= -115.017461707174     Delta-E=       -1.369650254394 Rises=F Damp=F
 DIIS: error= 1.93D-02 at cycle   3 NSaved=   3.
 NSaved= 3 IEnMin= 3 EnMin= -115.017461707174     IErMin= 3 ErrMin= 1.93D-02
 ErrMax= 1.93D-02 EMaxC= 1.00D-01 BMatC= 9.05D-03 BMatP= 1.85D-01
 IDIUse=3 WtCom= 8.07D-01 WtEn= 1.93D-01
 Coeff-Com:  0.436D-01-0.202D+00 0.116D+01
 Coeff-En:   0.000D+00 0.000D+00 0.100D+01
 Coeff:      0.352D-01-0.163D+00 0.113D+01
 Gap=     0.691 Goal=   None    Shift=    0.000
 RMSDP=3.73D-03 MaxDP=2.75D-02 DE=-1.37D+00 OVMax= 4.40D-02

 Cycle   4  Pass 1  IDiag  1:
 E= -115.032994270664     Delta-E=       -0.015532563490 Rises=F Damp=F
 DIIS: error= 3.89D-03 at cycle   4 NSaved=   4.
 NSaved= 4 IEnMin= 4 EnMin= -115.032994270664     IErMin= 4 ErrMin= 3.89D-03
 ErrMax= 3.89D-03 EMaxC= 1.00D-01 BMatC= 4.86D-04 BMatP= 9.05D-03
 IDIUse=3 WtCom= 9.61D-01 WtEn= 3.89D-02
 Coeff-Com:  0.228D-02-0.799D-02-0.108D+00 0.111D+01
 Coeff-En:   0.000D+00 0.000D+00 0.000D+00 0.100D+01
 Coeff:      0.219D-02-0.768D-02-0.104D+00 0.111D+01
 Gap=     0.670 Goal=   None    Shift=    0.000
 RMSDP=1.13D-03 MaxDP=7.78D-03 DE=-1.55D-02 OVMax= 1.35D-02

 Cycle   5  Pass 1  IDiag  1:
 E= -115.033976664746     Delta-E=       -0.000982394082 Rises=F Damp=F
 DIIS: error= 1.60D-03 at cycle   5 NSaved=   5.
 NSaved= 5 IEnMin= 5 EnMin= -115.033976664746     IErMin= 5 ErrMin= 1.60D-03
 ErrMax= 1.60D-03 EMaxC= 1.00D-01 BMatC= 9.64D-05 BMatP= 4.86D-04
 IDIUse=3 WtCom= 9.84D-01 WtEn= 1.60D-02
 Coeff-Com: -0.707D-02 0.149D-01-0.897D-01 0.277D+00 0.805D+00
 Coeff-En:   0.000D+00 0.000D+00 0.000D+00 0.000D+00 0.100D+01
 Coeff:     -0.695D-02 0.147D-01-0.882D-01 0.273D+00 0.808D+00
 Gap=     0.668 Goal=   None    Shift=    0.000
 RMSDP=2.75D-04 MaxDP=2.58D-03 DE=-9.82D-04 OVMax= 4.16D-03

 Cycle   6  Pass 1  IDiag  1:
 E= -115.034093821829     Delta-E=       -0.000117157083 Rises=F Damp=F
 DIIS: error= 4.29D-04 at cycle   6 NSaved=   6.
 NSaved= 6 IEnMin= 6 EnMin= -115.034093821829     IErMin= 6 ErrMin= 4.29D-04
 ErrMax= 4.29D-04 EMaxC= 1.00D-01 BMatC= 7.31D-06 BMatP= 9.64D-05
 IDIUse=3 WtCom= 9.96D-01 WtEn= 4.29D-03
 Coeff-Com: -0.319D-03 0.131D-02 0.229D-01-0.171D+00-0.936D-01 0.124D+01
 Coeff-En:   0.000D+00 0.000D+00 0.000D+00 0.000D+00 0.000D+00 0.100D+01
 Coeff:     -0.317D-03 0.130D-02 0.228D-01-0.170D+00-0.932D-01 0.124D+01
 Gap=     0.668 Goal=   None    Shift=    0.000
 RMSDP=1.68D-04 MaxDP=1.39D-03 DE=-1.17D-04 OVMax= 2.22D-03

 Cycle   7  Pass 1  IDiag  1:
 E= -115.034112321414     Delta-E=       -0.000018499585 Rises=F Damp=F
 DIIS: error= 7.57D-05 at cycle   7 NSaved=   7.
 NSaved= 7 IEnMin= 7 EnMin= -115.034112321414     IErMin= 7 ErrMin= 7.57D-05
 ErrMax= 7.57D-05 EMaxC= 1.00D-01 BMatC= 2.64D-07 BMatP= 7.31D-06
 IDIUse=1 WtCom= 1.00D+00 WtEn= 0.00D+00
 Coeff-Com:  0.737D-03-0.153D-02-0.205D-02 0.322D-01-0.235D-01-0.304D+00
 Coeff-Com:  0.130D+01
 Coeff:      0.737D-03-0.153D-02-0.205D-02 0.322D-01-0.235D-01-0.304D+00
 Coeff:      0.130D+01
 Gap=     0.668 Goal=   None    Shift=    0.000
 RMSDP=3.40D-05 MaxDP=2.72D-04 DE=-1.85D-05 OVMax= 4.98D-04

 Cycle   8  Pass 1  IDiag  1:
 E= -115.034113054403     Delta-E=       -0.000000732989 Rises=F Damp=F
 DIIS: error= 1.52D-05 at cycle   8 NSaved=   8.
 NSaved= 8 IEnMin= 8 EnMin= -115.034113054403     IErMin= 8 ErrMin= 1.52D-05
 ErrMax= 1.52D-05 EMaxC= 1.00D-01 BMatC= 6.73D-09 BMatP= 2.64D-07
 IDIUse=1 WtCom= 1.00D+00 WtEn= 0.00D+00
 Coeff-Com: -0.439D-04 0.854D-04-0.825D-04-0.994D-03 0.726D-02 0.219D-01
 Coeff-Com: -0.255D+00 0.123D+01
 Coeff:     -0.439D-04 0.854D-04-0.825D-04-0.994D-03 0.726D-02 0.219D-01
 Coeff:     -0.255D+00 0.123D+01
 Gap=     0.668 Goal=   None    Shift=    0.000
 RMSDP=5.11D-06 MaxDP=5.00D-05 DE=-7.33D-07 OVMax= 6.86D-05

 Cycle   9  Pass 1  IDiag  1:
 E= -115.034113071927     Delta-E=       -0.000000017524 Rises=F Damp=F
 DIIS: error= 2.84D-06 at cycle   9 NSaved=   9.
 NSaved= 9 IEnMin= 9 EnMin= -115.034113071927     IErMin= 9 ErrMin= 2.84D-06
 ErrMax= 2.84D-06 EMaxC= 1.00D-01 BMatC= 3.36D-10 BMatP= 6.73D-09
 IDIUse=1 WtCom= 1.00D+00 WtEn= 0.00D+00
 Coeff-Com:  0.121D-04-0.244D-04 0.112D-03-0.541D-03-0.172D-02 0.253D-02
 Coeff-Com:  0.381D-01-0.371D+00 0.133D+01
 Coeff:      0.121D-04-0.244D-04 0.112D-03-0.541D-03-0.172D-02 0.253D-02
 Coeff:      0.381D-01-0.371D+00 0.133D+01
 Gap=     0.668 Goal=   None    Shift=    0.000
 RMSDP=1.22D-06 MaxDP=1.06D-05 DE=-1.75D-08 OVMax= 1.43D-05

 Cycle  10  Pass 1  IDiag  1:
 E= -115.034113072822     Delta-E=       -0.000000000896 Rises=F Damp=F
 DIIS: error= 4.67D-07 at cycle  10 NSaved=  10.
 NSaved=10 IEnMin=10 EnMin= -115.034113072822     IErMin=10 ErrMin= 4.67D-07
 ErrMax= 4.67D-07 EMaxC= 1.00D-01 BMatC= 1.05D-11 BMatP= 3.36D-10
 IDIUse=1 WtCom= 1.00D+00 WtEn= 0.00D+00
 Coeff-Com:  0.501D-05-0.104D-04-0.950D-06 0.137D-03-0.309D-03-0.145D-02
 Coeff-Com:  0.932D-02-0.240D-01-0.105D+00 0.112D+01
 Coeff:      0.501D-05-0.104D-04-0.950D-06 0.137D-03-0.309D-03-0.145D-02
 Coeff:      0.932D-02-0.240D-01-0.105D+00 0.112D+01
 Gap=     0.668 Goal=   None    Shift=    0.000
 RMSDP=2.06D-07 MaxDP=1.54D-06 DE=-8.96D-10 OVMax= 2.44D-06

 Cycle  11  Pass 1  IDiag  1:
 E= -115.034113072848     Delta-E=       -0.000000000025 Rises=F Damp=F
 DIIS: error= 7.52D-08 at cycle  11 NSaved=  11.
 NSaved=11 IEnMin=11 EnMin= -115.034113072848     IErMin=11 ErrMin= 7.52D-08
 ErrMax= 7.52D-08 EMaxC= 1.00D-01 BMatC= 3.32D-13 BMatP= 1.05D-11
 IDIUse=1 WtCom= 1.00D+00 WtEn= 0.00D+00
 Coeff-Com: -0.768D-06 0.145D-05-0.246D-05 0.516D-05 0.729D-04 0.644D-04
 Coeff-Com: -0.201D-02 0.133D-01-0.263D-01-0.194D+00 0.121D+01
 Coeff:     -0.768D-06 0.145D-05-0.246D-05 0.516D-05 0.729D-04 0.644D-04
 Coeff:     -0.201D-02 0.133D-01-0.263D-01-0.194D+00 0.121D+01
 Gap=     0.668 Goal=   None    Shift=    0.000
 RMSDP=3.84D-08 MaxDP=2.89D-07 DE=-2.55D-11 OVMax= 4.78D-07

 Cycle  12  Pass 1  IDiag  1:
 E= -115.034113072849     Delta-E=       -0.000000000001 Rises=F Damp=F
 DIIS: error= 1.12D-08 at cycle  12 NSaved=  12.
 NSaved=12 IEnMin=12 EnMin= -115.034113072849     IErMin=12 ErrMin= 1.12D-08
 ErrMax= 1.12D-08 EMaxC= 1.00D-01 BMatC= 6.18D-15 BMatP= 3.32D-13
 IDIUse=1 WtCom= 1.00D+00 WtEn= 0.00D+00
 Coeff-Com: -0.144D-07 0.567D-07 0.179D-06-0.200D-05-0.104D-04 0.212D-05
 Coeff-Com:  0.292D-03-0.242D-02 0.780D-02 0.169D-01-0.227D+00 0.120D+01
 Coeff:     -0.144D-07 0.567D-07 0.179D-06-0.200D-05-0.104D-04 0.212D-05
 Coeff:      0.292D-03-0.242D-02 0.780D-02 0.169D-01-0.227D+00 0.120D+01
 Gap=     0.668 Goal=   None    Shift=    0.000
 RMSDP=3.53D-09 MaxDP=2.36D-08 DE=-9.38D-13 OVMax= 5.05D-08

 SCF Done:  E(RHF) =  -115.034113073     A.U. after   12 cycles
             Convg  =    0.3528D-08             -V/T =  2.0027
 KE= 1.147267558539D+02 PE=-3.512900008411D+02 EE= 8.134970381451D+01
 Leave Link  502 at Thu May 19 11:19:16 2022, MaxMem=26843545600 cpu:       1.5
 (Enter /opt/g09gh/gaussian/g09/l801.exe)
 ExpMin= 1.61D-01 ExpMax= 5.48D+03 ExpMxC= 8.25D+02 IAcc=1 IRadAn=         1 AccDes= 0.00D+00
 HarFok:  IExCor=  205 AccDes= 0.00D+00 IRadAn=         1 IDoV=-2
 ScaDFX=  1.000000  1.000000  1.000000  1.000000
 Largest valence mixing into a core orbital is  2.08D-04
 Largest core mixing into a valence orbital is  3.04D-05
 Range of M.O.s used for correlation:     3    38
 NBasis=    38 NAE=     9 NBE=     9 NFC=     2 NFV=     0
 NROrb=     36 NOA=     7 NOB=     7 NVA=    29 NVB=    29
 Leave Link  801 at Thu May 19 11:19:16 2022, MaxMem=26843545600 cpu:       0.4
 (Enter /opt/g09gh/gaussian/g09/l906.exe)
 Frozen-core derivative calculation, NFC=   2 NFV=   0.
 FulOut=F Deriv=T AODrv=T NAtomX=     6
   MMem=      888563  MDisk=           7 MDiskD=           7
  W3Min=       12996 MinDsk=       75631 NBas6D=          38
 NBas2D=         795    NTT=         741    LW2=     2040000
    MDV= 26843519533 MDiskM=     9810496 NBas2p=         795
 Fully direct method using O(ONN) memory.
 IMap=   1   2   3   4   5   6   7   8   9
 JobTyp=1 Pass  1:  I=   3 to   9 NPSUse= 10 ParTrn=T ParDer=T DoDerP=T.
 Spin components of T(2) and E(2):
     alpha-alpha T2 =       0.1090022828D-01 E2=     -0.3808615039D-01
     alpha-beta  T2 =       0.6904356643D-01 E2=     -0.2358500792D+00
     beta-beta   T2 =       0.1090022828D-01 E2=     -0.3808615039D-01
 The integrals were generated   1 times.
 ANorm=    0.1044434786D+01
 E2 =    -0.3120223800D+00 EUMP2 =    -0.11534613545281D+03
 Leave Link  906 at Thu May 19 11:19:16 2022, MaxMem=26843545600 cpu:       1.3
 (Enter /opt/g09gh/gaussian/g09/l1002.exe)
 Minotr:  Closed shell wavefunction.
          Computing MP2/KS-MP2 derivatives.
          Using Z-Vector for PSCF gradient.
          Skipping F1 and S1 gradient terms here.
          IDoAtm=111111
          Frozen-core window.
          Direct CPHF calculation.
          Differentiating once with respect to electric field.
                with respect to dipole field.
          Differentiating once with respect to nuclear coordinates.
          Requested convergence is 1.0D-10 RMS, and 1.0D-09 maximum.
          NewPWx=F KeepS1=T KeepF1=T KeepIn=T MapXYZ=F SortEE=F KeepMc=T.
          MDV=   26843545536 using IRadAn=       0.
          Keep R1 ints in memory in canonical form, NReq=1095534.
 Symmetry not used in FoFDir.
 MinBra= 0 MaxBra= 2 Meth= 1.
 IRaf=       0 NMat=   1 IRICut=       1 DoRegI=T DoRafI=F ISym2E= 0 JSym2E=0.
          Solving linear equations separately, MaxMat=       0.
          There are     1 degrees of freedom in the 1st order CPHF.  IDoFFX=0.
 LinEq1:  Iter=  0 NonCon=     1 RMS=6.21D-03 Max=3.37D-02
 AX will form     1 AO Fock derivatives at one time.
 LinEq1:  Iter=  1 NonCon=     1 RMS=1.89D-03 Max=1.10D-02
 LinEq1:  Iter=  2 NonCon=     1 RMS=3.93D-04 Max=2.79D-03
 LinEq1:  Iter=  3 NonCon=     1 RMS=1.75D-04 Max=1.13D-03
 LinEq1:  Iter=  4 NonCon=     1 RMS=2.96D-05 Max=1.46D-04
 LinEq1:  Iter=  5 NonCon=     1 RMS=5.15D-06 Max=2.01D-05
 LinEq1:  Iter=  6 NonCon=     1 RMS=8.18D-07 Max=4.83D-06
 LinEq1:  Iter=  7 NonCon=     1 RMS=1.18D-07 Max=7.27D-07
 LinEq1:  Iter=  8 NonCon=     1 RMS=1.21D-08 Max=5.07D-08
 LinEq1:  Iter=  9 NonCon=     1 RMS=1.97D-09 Max=9.18D-09
 LinEq1:  Iter= 10 NonCon=     1 RMS=2.78D-10 Max=1.01D-09
 LinEq1:  Iter= 11 NonCon=     0 RMS=4.37D-11 Max=2.26D-10
 Linear equations converged to 1.000D-10 1.000D-09 after    11 iterations.
 End of Minotr Frequency-dependent properties file   721 does not exist.
 End of Minotr Frequency-dependent properties file   722 does not exist.
 Leave Link 1002 at Thu May 19 11:19:16 2022, MaxMem=26843545600 cpu:       1.7
 (Enter /opt/g09gh/gaussian/g09/l701.exe)
 Compute integral first derivatives.
 ... and contract with generalized density number  2.
 Leave Link  701 at Thu May 19 11:19:16 2022, MaxMem=26843545600 cpu:       2.3
 (Enter /opt/g09gh/gaussian/g09/l702.exe)
 L702 exits ... SP integral derivatives will be done elsewhere.
 Leave Link  702 at Thu May 19 11:19:16 2022, MaxMem=26843545600 cpu:       0.2
 (Enter /opt/g09gh/gaussian/g09/l703.exe)
 Compute integral first derivatives, UseDBF=F ICtDFT=           0.
 Integral derivatives from FoFDir, PRISM(SPDF).
 Calling FoFJK, ICntrl=      2127 FMM=F ISym2X=0 I1Cent= 0 IOpClX= 0 NMat=1 NMatS=1 NMatT=0.
 FoFCou: FMM=F IPFlag=           0 FMFlag=      100000 FMFlg1=         800
         NFxFlg=           0 DoJE=F BraDBF=F KetDBF=F FulRan=T
         Omega=  0.000000  0.000000  1.000000  0.000000  0.000000 ICntrl=    2127 IOpCl=  0
         NMat0=    1 NMatS0=    1 NMatT0=    0 NMatD0=    1 NMtDS0=    0 NMtDT0=    0
         I1Cent=           0 NGrid=           0.
 Symmetry not used in FoFCou.
 Leave Link  703 at Thu May 19 11:19:17 2022, MaxMem=26843545600 cpu:       2.2
 (Enter /opt/g09gh/gaussian/g09/l716.exe)
 Dipole        = 3.46656940D-01-6.34037609D-01-4.54048571D-07
 ***** Axes restored to original set *****
 -------------------------------------------------------------------
 Center     Atomic                   Forces (Hartrees/Bohr)
 Number     Number              X              Y              Z
 -------------------------------------------------------------------
      1        8           0.000087826   -0.000001117   -0.000037109
      2        6          -0.000063102    0.000003689    0.000129214
      3        1          -0.000014875   -0.000007845   -0.000053767
      4        1          -0.000014852    0.000004729   -0.000054076
      5        1          -0.000007325   -0.000002112   -0.000072313
      6        1           0.000012328    0.000002656    0.000088051
 -------------------------------------------------------------------
 Cartesian Forces:  Max     0.000129214 RMS     0.000052347
 Leave Link  716 at Thu May 19 11:19:17 2022, MaxMem=26843545600 cpu:       0.2
 (Enter /opt/g09gh/gaussian/g09/l103.exe)

 GradGradGradGradGradGradGradGradGradGradGradGradGradGradGradGradGradGrad
 Berny optimization.
 Using GEDIIS/GDIIS optimizer.
 Internal  Forces:  Max     0.000161826 RMS     0.000061555
 Search for a local minimum.
 Step number   4 out of a maximum of  100
 All quantities printed in internal units (Hartrees-Bohrs-Radians)
 RMS Force = .61555D-04 SwitMx=.10000D-02 MixMth= 2
 Mixed Optimization -- En-DIIS/RFO-DIIS
 Swaping is turned off.
 Update second derivatives using D2CorX and points    1    2    3    4
 DE= -6.85D-07 DEPred=-9.60D-07 R= 7.13D-01
 Trust test= 7.13D-01 RLast= 2.72D-03 DXMaxT set to 3.71D-01
 The second derivative matrix:
                          R1        R2        R3        R4        R5
           R1           0.41424
           R2          -0.00033   0.53218
           R3           0.00745   0.00032   0.34373
           R4           0.00737   0.00032  -0.00118   0.34372
           R5          -0.00520   0.00286   0.00088   0.00086   0.34713
           A1           0.03782   0.00819   0.00047   0.00048   0.00902
           A2           0.01035  -0.00231   0.00051   0.00051  -0.00176
           A3           0.01039  -0.00231   0.00050   0.00051  -0.00176
           A4           0.02110   0.00655   0.00142   0.00141   0.00655
           A5          -0.03072   0.00437   0.00073   0.00070   0.00255
           A6          -0.00597  -0.00296  -0.00116  -0.00115  -0.00261
           A7          -0.00577  -0.00295  -0.00119  -0.00118  -0.00257
           D1          -0.01120   0.00942  -0.00143  -0.00143   0.00858
           D2           0.01127  -0.00941   0.00142   0.00143  -0.00857
           D3          -0.00007   0.00000   0.00001   0.00001  -0.00001
                          A1        A2        A3        A4        A5
           A1           0.19807
           A2           0.00180   0.16326
           A3           0.00181   0.00327   0.16327
           A4           0.02925   0.00295   0.00297   0.17680
           A5          -0.00332  -0.01421  -0.01423   0.00596   0.16611
           A6          -0.01457   0.00256   0.00256  -0.01488   0.00860
           A7          -0.01456   0.00256   0.00255  -0.01484   0.00865
           D1           0.00975  -0.01816  -0.01819   0.02182   0.00815
           D2          -0.00973   0.01817   0.01819  -0.02179  -0.00815
           D3          -0.00003   0.00000   0.00000  -0.00003   0.00000
                          A6        A7        D1        D2        D3
           A6           0.16055
           A7           0.00052   0.16049
           D1           0.00432   0.00432   0.02575
           D2          -0.00434  -0.00434  -0.01091   0.02575
           D3           0.00002   0.00002   0.00000   0.00000   0.01484
     Eigenvalues ---    0.01484   0.10554   0.10590   0.15853   0.16000
     Eigenvalues ---    0.18536   0.22218   0.34102   0.34491   0.34893
     Eigenvalues ---    0.42878   0.532921000.000001000.000001000.00000
 En-DIIS/RFO-DIIS IScMMF=        0 using points:     4    3
 RFO step:  Lambda=-1.11787808D-07.
 DIIS coeffs:      0.77659      0.22341
 Iteration  1 RMS(Cart)=  0.00037869 RMS(Int)=  0.00000008
 Iteration  2 RMS(Cart)=  0.00000007 RMS(Int)=  0.00000001
 Variable       Old X    -DE/DX   Delta X   Delta X   Delta X     New X
                                  (DIIS)     (GDIIS)  (Total)
    R1        2.69194   0.00008   0.00035  -0.00028   0.00007   2.69201
    R2        1.83330   0.00001   0.00003  -0.00002   0.00001   1.83330
    R3        2.07312   0.00002  -0.00002   0.00006   0.00005   2.07317
    R4        2.07312   0.00002  -0.00002   0.00006   0.00005   2.07317
    R5        2.05966   0.00000   0.00007  -0.00009  -0.00001   2.05965
    A1        1.87322   0.00016   0.00031   0.00039   0.00070   1.87393
    A2        1.95959   0.00005  -0.00001   0.00024   0.00024   1.95983
    A3        1.95959   0.00005  -0.00001   0.00024   0.00024   1.95983
    A4        1.85453   0.00009   0.00031   0.00003   0.00035   1.85488
    A5        1.89920  -0.00007   0.00000  -0.00036  -0.00036   1.89884
    A6        1.89426  -0.00006  -0.00015  -0.00009  -0.00024   1.89402
    A7        1.89426  -0.00006  -0.00015  -0.00009  -0.00024   1.89402
    D1       -1.07328   0.00001   0.00001   0.00005   0.00006  -1.07322
    D2        1.07327  -0.00001  -0.00001  -0.00005  -0.00006   1.07322
    D3        3.14159   0.00000   0.00000   0.00000   0.00000   3.14159
         Item               Value     Threshold  Converged?
 Maximum Force            0.000162     0.000450     YES
 RMS     Force            0.000062     0.000300     YES
 Maximum Displacement     0.001019     0.001800     YES
 RMS     Displacement     0.000379     0.001200     YES
 Predicted change in Energy=-1.128583D-07
 Optimization completed.
    -- Stationary point found.
                           ----------------------------
                           !   Optimized Parameters   !
                           ! (Angstroms and Degrees)  !
 --------------------------                            --------------------------
 ! Name  Definition              Value          Derivative Info.                !
 --------------------------------------------------------------------------------
 ! R1    R(1,2)                  1.4245         -DE/DX =    0.0001              !
 ! R2    R(1,6)                  0.9701         -DE/DX =    0.0                 !
 ! R3    R(2,3)                  1.097          -DE/DX =    0.0                 !
 ! R4    R(2,4)                  1.097          -DE/DX =    0.0                 !
 ! R5    R(2,5)                  1.0899         -DE/DX =    0.0                 !
 ! A1    A(2,1,6)              107.3279         -DE/DX =    0.0002              !
 ! A2    A(1,2,3)              112.2764         -DE/DX =    0.0                 !
 ! A3    A(1,2,4)              112.2764         -DE/DX =    0.0                 !
 ! A4    A(1,2,5)              106.2567         -DE/DX =    0.0001              !
 ! A5    A(3,2,4)              108.8161         -DE/DX =   -0.0001              !
 ! A6    A(3,2,5)              108.5332         -DE/DX =   -0.0001              !
 ! A7    A(4,2,5)              108.5331         -DE/DX =   -0.0001              !
 ! D1    D(6,1,2,3)            -61.4942         -DE/DX =    0.0                 !
 ! D2    D(6,1,2,4)             61.4941         -DE/DX =    0.0                 !
 ! D3    D(6,1,2,5)            179.9999         -DE/DX =    0.0                 !
 --------------------------------------------------------------------------------
 GradGradGradGradGradGradGradGradGradGradGradGradGradGradGradGradGradGrad

 Largest change from initial coordinates is atom    4       2.256 Angstoms.
 Leave Link  103 at Thu May 19 11:19:17 2022, MaxMem=26843545600 cpu:       0.1
 (Enter /opt/g09gh/gaussian/g09/l202.exe)
                          Input orientation:                          
 ---------------------------------------------------------------------
 Center     Atomic      Atomic             Coordinates (Angstroms)
 Number     Number       Type             X           Y           Z
 ---------------------------------------------------------------------
      1          8           0        0.987431    0.074301    0.085752
      2          6           0        0.542268    0.033578   -1.266806
      3          1           0        0.872528    0.908834   -1.839843
      4          1           0        0.872541   -0.874559   -1.786153
      5          1           0       -0.547023    0.034688   -1.229672
      6          1           0        1.957454    0.073858    0.070822
 ---------------------------------------------------------------------
                    Distance matrix (angstroms):
                    1          2          3          4          5
     1  O    0.000000
     2  C    1.424515   0.000000
     3  H    2.101800   1.097048   0.000000
     4  H    2.101800   1.097048   1.784201   0.000000
     5  H    2.021499   1.089924   1.775265   1.775264   0.000000
     6  H    0.970139   1.947723   2.350509   2.350508   2.822273
                    6
     6  H    0.000000
 Stoichiometry    CH4O
 Framework group  C1[X(CH4O)]
 Deg. of freedom    12
 Full point group                 C1      NOp   1
 Largest Abelian subgroup         C1      NOp   1
 Largest concise Abelian subgroup C1      NOp   1
                         Standard orientation:                         
 ---------------------------------------------------------------------
 Center     Atomic      Atomic             Coordinates (Angstroms)
 Number     Number       Type             X           Y           Z
 ---------------------------------------------------------------------
      1          8           0       -0.750865    0.122705    0.000000
      2          6           0        0.666537   -0.019469    0.000000
      3          1           0        1.031969   -0.543044    0.892100
      4          1           0        1.031969   -0.543045   -0.892100
      5          1           0        1.074559    0.991200   -0.000001
      6          1           0       -1.130799   -0.769942   -0.000001
 ---------------------------------------------------------------------
 Rotational constants (GHZ):    127.1726949     24.6965764     23.8058423
 Leave Link  202 at Thu May 19 11:19:17 2022, MaxMem=26843545600 cpu:       0.0
 (Enter /opt/g09gh/gaussian/g09/l601.exe)
 Copying SCF densities to generalized density rwf, IOpCl= 0 IROHF=0.

 **********************************************************************

            Population analysis using the SCF density.

 **********************************************************************

 Orbital symmetries:
       Occupied  (A) (A) (A) (A) (A) (A) (A) (A) (A)
       Virtual   (A) (A) (A) (A) (A) (A) (A) (A) (A) (A) (A) (A)
                 (A) (A) (A) (A) (A) (A) (A) (A) (A) (A) (A) (A)
                 (A) (A) (A) (A) (A)
 The electronic state is 1-A.
 Alpha  occ. eigenvalues --  -20.55984 -11.27230  -1.34779  -0.92184  -0.68354
 Alpha  occ. eigenvalues --   -0.61548  -0.58620  -0.49963  -0.44530
 Alpha virt. eigenvalues --    0.22266   0.27646   0.31924   0.32692   0.37938
 Alpha virt. eigenvalues --    0.76218   0.77698   0.78695   1.04798   1.12217
 Alpha virt. eigenvalues --    1.14507   1.17244   1.20529   1.25515   1.26675
 Alpha virt. eigenvalues --    1.40522   1.72357   1.77629   1.85833   2.03806
 Alpha virt. eigenvalues --    2.36705   2.44400   2.45557   2.67808   2.73274
 Alpha virt. eigenvalues --    2.78304   3.15182   4.11460   4.63694
          Condensed to atoms (all electrons):
              1          2          3          4          5          6
     1  O    8.361049   0.216627  -0.035985  -0.035985  -0.036162   0.258567
     2  C    0.216627   4.799932   0.389416   0.389416   0.400606  -0.027067
     3  H   -0.035985   0.389416   0.582826  -0.043118  -0.032584  -0.003996
     4  H   -0.035985   0.389416  -0.043118   0.582827  -0.032584  -0.003996
     5  H   -0.036162   0.400606  -0.032584  -0.032584   0.519280   0.005331
     6  H    0.258567  -0.027067  -0.003996  -0.003996   0.005331   0.337114
 Mulliken atomic charges:
              1
     1  O   -0.728111
     2  C   -0.168929
     3  H    0.143440
     4  H    0.143440
     5  H    0.176114
     6  H    0.434046
 Sum of Mulliken atomic charges =   0.00000
 Mulliken charges with hydrogens summed into heavy atoms:
              1
     1  O   -0.294065
     2  C    0.294065
 Sum of Mulliken charges with hydrogens summed into heavy atoms =   0.00000
 Electronic spatial extent (au):  <R**2>=             84.3138
 Charge=              0.0000 electrons
 Dipole moment (field-independent basis, Debye):
    X=              1.0056    Y=             -1.6719    Z=              0.0000  Tot=              1.9510
 Quadrupole moment (field-independent basis, Debye-Ang):
   XX=            -12.7159   YY=            -11.9892   ZZ=            -13.6796
   XY=              2.3411   XZ=              0.0000   YZ=              0.0000
 Traceless Quadrupole moment (field-independent basis, Debye-Ang):
   XX=              0.0790   YY=              0.8057   ZZ=             -0.8847
   XY=              2.3411   XZ=              0.0000   YZ=              0.0000
 Octapole moment (field-independent basis, Debye-Ang**2):
  XXX=             -4.1468  YYY=             -0.7801  ZZZ=              0.0000  XYY=             -1.9494
  XXY=             -2.4497  XXZ=              0.0000  XZZ=             -0.5062  YZZ=             -0.6031
  YYZ=              0.0000  XYZ=              0.0000
 Hexadecapole moment (field-independent basis, Debye-Ang**3):
 XXXX=            -60.0829 YYYY=            -19.0836 ZZZZ=            -19.0032 XXXY=              3.8608
 XXXZ=              0.0000 YYYX=              3.0285 YYYZ=              0.0000 ZZZX=              0.0000
 ZZZY=              0.0000 XXYY=            -12.0186 XXZZ=            -13.7725 YYZZ=             -6.5143
 XXYZ=              0.0000 YYXZ=              0.0000 ZZXY=             -0.0663
 N-N= 4.017942809985D+01 E-N=-3.512900007134D+02  KE= 1.147267558539D+02
 No NMR shielding tensors so no spin-rotation constants.
 Leave Link  601 at Thu May 19 11:19:17 2022, MaxMem=26843545600 cpu:       2.3
 (Enter /opt/g09gh/gaussian/g09/l9999.exe)

 Test job not archived.
 1\1\GINC-NODE38\FOpt\RMP2-FC\6-31G(d)\C1H4O1\LIUCHW\19-May-2022\0\\#P 
 MP2/6-31G* IOP(5/13=1) OPT(MaxCycle=200) MaxDisk=500GB\\Generated by T
 IPTOP/IP_ParmGen.py\\0,1\O,0.9874306845,0.0743011796,0.0857521077\C,0.
 542267918,0.0335783307,-1.2668062604\H,0.8725283481,0.9088335923,-1.83
 98430066\H,0.8725414129,-0.8745592201,-1.7861529414\H,-0.5470226715,0.
 0346876396,-1.2296722792\H,1.9574543079,0.0738581233,0.0708223906\\Ver
 sion=EM64L-G09RevA.02\State=1-A\HF=-115.0341131\MP2=-115.3461355\RMSD=
 3.528e-09\RMSF=5.235e-05\Dipole=0.4388455,-0.0172731,-0.5738388\PG=C01
  [X(C1H4O1)]\\@


 IT'S WHAT YOU LEARN AFTER YOU KNOW IT ALL
 THAT COUNTS.
 Job cpu time:  0 days  0 hours  1 minutes  2.8 seconds.
 File lengths (MBytes):  RWF=      5 Int=      0 D2E=      0 Chk=      1 Scr=      1
 Normal termination of Gaussian 09 at Thu May 19 11:19:17 2022.
